lattice_vector     0.0000000000000000   16.8447999999999993    0.0000000000000000
lattice_vector     0.0000000000000000    0.0000000000000000   16.8447999999999993 
lattice_vector    36.3168000000000006    0.0000000000000000    0.0000000000000000
atom 0.040530 3.016466 2.085757 O
atom 0.040530 0.910866 16.824957 O
atom 6.446888 2.988256 16.835518 O
atom 6.446460 0.884064 2.096131 O
atom 4.285715 2.994856 2.094360 O
atom 4.286064 0.889668 16.833658 O
atom 2.167711 3.015163 16.823008 O
atom 2.167840 0.910084 2.084615 O
atom 0.040530 7.227666 2.085757 O
atom 0.040530 5.122066 16.824957 O
atom 6.447710 7.200161 16.834926 O
atom 6.446096 5.087997 2.093605 O
atom 4.288472 7.211424 2.086763 O
atom 4.285901 5.100387 16.833394 O
atom 2.167446 7.226437 16.822298 O
atom 2.168730 5.123300 2.086048 O
atom 0.040530 11.438866 2.085757 O
atom 0.040530 9.333266 16.824957 O
atom 6.448304 11.416905 16.835291 O
atom 6.451566 9.317132 2.076573 O
atom 4.288933 11.423005 2.089801 O
atom 4.286723 9.314668 16.831826 O
atom 2.167470 11.437721 16.822478 O
atom 2.170177 9.334341 2.085343 O
atom 0.040530 15.650066 2.085757 O
atom 0.040530 13.544466 16.824957 O
atom 6.446422 15.625023 16.836320 O
atom 6.447254 13.525746 2.091245 O
atom 4.286333 15.630394 2.093705 O
atom 4.285786 13.524721 16.833031 O
atom 2.167706 15.647994 16.821948 O
atom 2.168749 13.545029 2.084734 O
atom 0.040530 3.016466 6.296957 O
atom 0.040530 0.910866 4.191357 O
atom 6.446109 2.982152 4.199654 O
atom 6.449746 0.882330 6.308940 O
atom 4.286978 2.989838 6.310584 O
atom 4.286227 0.890151 4.200323 O
atom 2.167631 3.017160 4.192224 O
atom 2.167455 0.911270 6.297651 O
atom 0.040530 7.227666 6.296957 O
atom 0.040530 5.122066 4.191357 O
atom 6.425163 7.199075 4.155986 O
atom 6.422222 5.060681 6.297661 O
atom 4.361753 7.233298 6.309022 O
atom 4.285878 5.100907 4.198826 O
atom 2.179003 7.235459 4.193489 O
atom 2.179299 5.131141 6.297240 O
atom 0.040530 11.438866 6.296957 O
atom 0.040530 9.333266 4.191357 O
atom 6.453183 11.434806 4.185949 O
atom 6.527361 9.391822 6.238633 O
atom 4.306108 11.421628 6.300505 O
atom 4.306979 9.324720 4.199433 O
atom 2.171764 11.438884 4.189612 O
atom 2.182524 9.333366 6.295052 O
atom 0.040530 15.650066 6.296957 O
atom 0.040530 13.544466 4.191357 O
atom 6.448841 15.627707 4.200026 O
atom 6.451832 13.542907 6.304240 O
atom 4.289862 15.634169 6.305412 O
atom 4.290020 13.529730 4.199105 O
atom 2.168983 15.650712 4.190968 O
atom 2.171136 13.543213 6.293626 O
atom 0.040530 3.016466 10.508157 O
atom 0.040530 0.910866 8.402557 O
atom 6.449003 2.974622 8.419548 O
atom 6.450663 0.882719 10.526285 O
atom 4.288213 2.996322 10.516915 O
atom 4.288224 0.887778 8.414356 O
atom 2.172259 3.020456 8.401691 O
atom 2.168315 0.910260 10.505433 O
atom 0.040530 7.227666 10.508157 O
atom 0.040530 5.122066 8.402557 O
atom 6.512701 7.139681 8.495277 O
atom 6.448990 5.083570 10.536295 O
atom 4.303806 7.211796 10.510325 O
atom 4.306326 5.114318 8.410007 O
atom 2.181280 7.231809 8.394295 O
atom 2.174025 5.125024 10.502713 O
atom 0.040530 11.438866 10.508157 O
atom 0.040530 9.333266 8.402557 O
atom 6.433494 11.455103 8.421230 O
atom 6.430508 9.321704 10.552169 O
atom 4.289642 11.423020 10.517771 O
atom 4.352559 9.314105 8.389204 O
atom 2.177782 11.433660 8.395305 O
atom 2.179008 9.332557 10.494835 O
atom 0.040530 15.650066 10.508157 O
atom 0.040530 13.544466 8.402557 O
atom 6.449417 15.626005 8.418866 O
atom 6.448197 13.524277 10.532055 O
atom 4.287272 15.630102 10.517912 O
atom 4.290139 13.531710 8.409607 O
atom 2.168426 15.648905 8.399790 O
atom 2.168030 13.541956 10.503696 O
atom 0.040530 3.016466 14.719357 O
atom 0.040530 0.910866 12.613757 O
atom 6.451668 2.986199 12.633600 O
atom 6.448494 0.883648 14.733660 O
atom 4.286192 2.995202 14.728256 O
atom 4.287033 0.890303 12.622908 O
atom 2.168576 3.015579 12.610090 O
atom 2.168287 0.908560 14.715790 O
atom 0.040530 7.227666 14.719357 O
atom 0.040530 5.122066 12.613757 O
atom 6.446249 7.200768 12.642978 O
atom 6.448604 5.094192 14.733541 O
atom 4.286440 7.206130 14.729096 O
atom 4.288279 5.102260 12.622910 O
atom 2.170786 7.226919 12.607105 O
atom 2.167989 5.120564 14.715354 O
atom 0.040530 11.438866 14.719357 O
atom 0.040530 9.333266 12.613757 O
atom 6.446786 11.416877 12.636375 O
atom 6.449148 9.308225 14.735095 O
atom 4.286273 11.418286 14.728398 O
atom 4.285481 9.312041 12.627889 O
atom 2.168069 11.435667 12.609012 O
atom 2.166989 9.330863 14.716334 O
atom 0.040530 15.650066 14.719357 O
atom 0.040530 13.544466 12.613757 O
atom 6.447699 15.625957 12.631131 O
atom 6.446322 13.520551 14.733599 O
atom 4.286227 15.629351 14.728323 O
atom 4.286567 13.524334 12.623267 O
atom 2.168288 15.647559 12.609916 O
atom 2.167518 13.541658 14.715419 O
atom 6.398862 0.883907 16.836156 Mg
atom 6.399094 2.984772 2.093070 Mg
atom 0.040530 0.910866 2.085757 Mg
atom 0.040530 3.016466 16.824957 Mg
atom 2.165280 0.906622 16.825840 Mg
atom 2.166099 3.012938 2.087589 Mg
atom 4.295386 0.891473 2.093893 Mg
atom 4.295426 2.995319 16.833858 Mg
atom 6.399306 5.091581 16.835722 Mg
atom 6.404049 7.194788 2.081117 Mg
atom 0.040530 5.122066 2.085757 Mg
atom 0.040530 7.227666 16.824957 Mg
atom 2.165598 5.118034 16.826152 Mg
atom 2.169258 7.225478 2.086361 Mg
atom 4.296121 5.102099 2.093401 Mg
atom 4.295749 7.207614 16.832368 Mg
atom 6.402138 9.310909 16.832760 Mg
atom 6.402873 11.429603 2.083329 Mg
atom 0.040530 9.333266 2.085757 Mg
atom 0.040530 11.438866 16.824957 Mg
atom 2.165200 9.329738 16.825039 Mg
atom 2.166879 11.437326 2.086053 Mg
atom 4.296577 9.317758 2.084443 Mg
atom 4.295818 11.422130 16.831770 Mg
atom 6.398983 13.523096 16.834083 Mg
atom 6.399207 15.628306 2.093246 Mg
atom 0.040530 13.544466 2.085757 Mg
atom 0.040530 15.650066 16.824957 Mg
atom 2.165310 13.540869 16.825436 Mg
atom 2.165737 15.647404 2.086540 Mg
atom 4.295379 13.529682 2.091892 Mg
atom 4.295146 15.631114 16.832726 Mg
atom 6.400421 0.883468 4.199861 Mg
atom 6.403081 2.978156 6.300561 Mg
atom 0.040530 0.910866 6.296957 Mg
atom 0.040530 3.016466 4.191357 Mg
atom 2.165973 0.907806 4.193340 Mg
atom 2.169253 3.013445 6.298434 Mg
atom 4.297515 0.890431 6.307021 Mg
atom 4.296450 2.994650 4.201084 Mg
atom 6.407287 5.073686 4.178043 Mg
atom 6.527377 7.105055 6.199894 Mg
atom 0.040530 5.122066 6.296957 Mg
atom 0.040530 7.227666 4.191357 Mg
atom 2.170306 5.120218 4.192525 Mg
atom 2.176288 7.227961 6.296089 Mg
atom 4.311675 5.102647 6.302858 Mg
atom 4.312817 7.212028 4.192601 Mg
atom 6.421290 9.322758 4.127504 Mg
atom 6.416861 11.494769 6.294028 Mg
atom 0.040530 9.333266 6.296957 Mg
atom 0.040530 11.438866 4.191357 Mg
atom 2.170944 9.333617 4.191185 Mg
atom 2.171020 11.437856 6.295888 Mg
atom 4.311828 9.320051 6.298329 Mg
atom 4.305548 11.428179 4.193470 Mg
atom 6.403849 13.535690 4.187657 Mg
atom 6.403654 15.631566 6.307602 Mg
atom 0.040530 13.544466 6.296957 Mg
atom 0.040530 15.650066 4.191357 Mg
atom 2.166900 13.542993 4.191648 Mg
atom 2.166530 15.648732 6.297922 Mg
atom 4.296972 13.537850 6.302961 Mg
atom 4.296929 15.634762 4.198655 Mg
atom 6.402485 0.881389 8.418045 Mg
atom 6.402877 2.980692 10.533663 Mg
atom 0.040530 0.910866 10.508157 Mg
atom 0.040530 3.016466 8.402557 Mg
atom 2.166342 0.906856 8.404165 Mg
atom 2.167756 3.013461 10.509224 Mg
atom 4.297369 0.889771 10.518864 Mg
atom 4.297405 2.991546 8.411883 Mg
atom 6.419633 5.029810 8.421092 Mg
atom 6.411687 7.196593 10.593691 Mg
atom 0.040530 5.122066 10.508157 Mg
atom 0.040530 7.227666 8.402557 Mg
atom 2.172404 5.120621 8.403708 Mg
atom 2.171752 7.224780 10.507630 Mg
atom 4.305478 5.102780 10.518208 Mg
atom 4.312331 7.214593 8.403677 Mg
atom 6.483447 9.406904 8.500626 Mg
atom 6.404178 11.439727 10.544668 Mg
atom 0.040530 9.333266 10.508157 Mg
atom 0.040530 11.438866 8.402557 Mg
atom 2.174114 9.332074 8.399890 Mg
atom 2.169482 11.436985 10.508491 Mg
atom 4.307841 9.319234 10.520430 Mg
atom 4.308877 11.431459 8.409537 Mg
atom 6.404318 13.536876 8.424188 Mg
atom 6.400775 15.626928 10.527344 Mg
atom 0.040530 13.544466 10.508157 Mg
atom 0.040530 15.650066 8.402557 Mg
atom 2.168464 13.542859 8.403043 Mg
atom 2.165848 15.646553 10.508982 Mg
atom 4.296636 13.528849 10.519278 Mg
atom 4.297755 15.633202 8.412746 Mg
atom 6.400862 0.883186 12.631259 Mg
atom 6.400090 2.987342 14.734791 Mg
atom 0.040530 0.910866 14.719357 Mg
atom 0.040530 3.016466 12.613757 Mg
atom 2.165394 0.906657 12.614596 Mg
atom 2.165336 3.011991 14.720316 Mg
atom 4.296018 0.890295 14.728666 Mg
atom 4.296548 2.995109 12.624316 Mg
atom 6.402012 5.084713 12.638110 Mg
atom 6.400596 7.200848 14.736791 Mg
atom 0.040530 5.122066 14.719357 Mg
atom 0.040530 7.227666 12.613757 Mg
atom 2.167266 5.117682 12.614370 Mg
atom 2.165408 7.223148 14.720700 Mg
atom 4.296550 5.100520 14.729803 Mg
atom 4.294831 7.208953 12.630296 Mg
atom 6.401491 9.318255 12.640623 Mg
atom 6.400004 11.417039 14.735246 Mg
atom 0.040530 9.333266 14.719357 Mg
atom 0.040530 11.438866 12.613757 Mg
atom 2.168192 9.330093 12.614772 Mg
atom 2.165121 11.434474 14.720245 Mg
atom 4.296106 9.314170 14.730731 Mg
atom 4.296071 11.420586 12.625973 Mg
atom 6.399473 13.524762 12.634778 Mg
atom 6.398913 15.626011 14.733835 Mg
atom 0.040530 13.544466 14.719357 Mg
atom 0.040530 15.650066 12.613757 Mg
atom 2.165515 13.540402 12.614598 Mg
atom 2.165035 15.645579 14.719967 Mg
atom 4.295252 13.525453 14.728448 Mg
atom 4.296057 15.630893 12.624470 Mg
atom 9.719450 7.188357 6.320198 Ni
atom 10.212687 8.766293 7.898054 Ni
atom 8.370759 7.440594 8.164910 Ni
atom 8.382215 9.045683 6.557112 Ni