lattice_vector     0.0000000000000000   16.8447999999999993    0.0000000000000000
lattice_vector     0.0000000000000000    0.0000000000000000   16.8447999999999993
lattice_vector    36.3168000000000006    0.0000000000000000    0.0000000000000000
atom        3.016466         2.085757       0.040530   O         
atom        0.910866        16.824957       0.040530   O         
atom        2.982503        16.833175       6.446132   O         
atom        0.880140         2.094882       6.446214   O         
atom        2.996340         2.094646       4.288079   O         
atom        0.890390        16.833672       4.285403   O         
atom        3.017187        16.825523       2.167867   O         
atom        0.912198         2.086924       2.166843   O         
atom        7.227666         2.085757       0.040530   O         
atom        5.122066        16.824957       0.040530   O         
atom        7.202018        16.812759       6.441151   O         
atom        5.089414         2.066039       6.443706   O         
atom        7.216593         2.098247       4.304649   O         
atom        5.102314        16.833040       4.285744   O
atom        7.229875        16.826286       2.169334   O         
atom        5.128707         2.087920       2.173326   O         
atom       11.438866         2.085757       0.040530   O         
atom        9.333266        16.824957       0.040530   O         
atom       11.431047        16.821793       6.441373   O         
atom        9.327687         2.036668       6.420486   O         
atom       11.431035         2.087612       4.288488   O         
atom        9.318642        16.823135       4.282157   O         
atom       11.439464        16.823240       2.166045   O         
atom        9.335572         2.088639       2.174920   O         
atom       15.650066         2.085757       0.040530   O         
atom       13.544466        16.824957       0.040530   O         
atom       15.627141        16.833701       6.444433   O         
atom       13.534634         2.085062       6.445310   O         
atom       15.632484         2.093446       4.285591   O         
atom       13.530206        16.829476       4.284450   O         
atom       15.650842        16.823464       2.165964   O         
atom       13.546558         2.085339       2.165762   O         
atom        3.016466         6.296957       0.040530   O         
atom        0.910866         4.191357       0.040530   O         
atom        2.955669         4.200521       6.437959   O         
atom        0.881728         6.315760       6.441464   O         
atom        2.993519         6.310048       4.286485   O         
atom        0.889809         4.200674       4.285230   O         
atom        3.023949         4.192203       2.173749   O         
atom        0.914166         6.299084       2.165663   O         
atom        7.227666         6.296957       0.040530   O         
atom        5.122066         4.191357       0.040530   O         
atom        7.204245         4.138142       6.544269   O         
atom        5.076280         6.343712       6.412216   O         
atom        7.239849         6.299128       4.365484   O         
atom        5.127736         4.201018       4.314281   O         
atom        7.238394         4.195138       2.180763   O         
atom        5.133391         6.296365       2.182238   O         
atom       11.438866         6.296957       0.040530   O         
atom        9.333266         4.191357       0.040530   O         
atom       11.467633         4.192137       6.434786   O         
atom        9.343431         6.337630       6.597297   O         
atom       11.417850         6.303508       4.310650   O         
atom        9.316226         4.205355       4.355673   O         
atom       11.435309         4.188969       2.177337   O         
atom        9.331348         6.290898       2.185178   O         
atom       15.650066         6.296957       0.040530   O         
atom       13.544466         4.191357       0.040530   O         
atom       15.628609         4.203199       6.446544   O         
atom       13.547052         6.312158       6.447177   O         
atom       15.633290         6.306869       4.285583   O         
atom       13.533449         4.198482       4.285933   O         
atom       15.651329         4.192871       2.165978   O         
atom       13.541349         6.294780       2.169304   O         
atom        3.016466        10.508157       0.040530   O         
atom        0.910866         8.402557       0.040530   O         
atom        2.974014         8.425108       6.443888   O         
atom        0.884238        10.525731       6.446215   O         
atom        3.001313        10.516530       4.290473   O         
atom        0.891299         8.414566       4.285163   O         
atom        3.025226         8.402023       2.174602   O         
atom        0.912981        10.506287       2.168033   O         
atom        7.227666        10.508157       0.040530   O         
atom        5.122066         8.402557       0.040530   O         
atom        7.191302         8.433099       6.627827   O         
atom        5.097912        10.525394       6.448031   O         
atom        7.213208        10.493960       4.315724   O         
atom        5.135250         8.409600       4.315877   O         
atom        7.230783         8.391123       2.179283   O         
atom        5.126350        10.500852       2.176461   O         
atom       11.438866        10.508157       0.040530   O         
atom        9.333266         8.402557       0.040530   O         
atom       11.460155         8.429971       6.423922   O         
atom        9.313890        10.565002       6.413416   O         
atom       11.420816        10.519205       4.286134   O         
atom        9.304410         8.385100       4.352690   O         
atom       11.431174         8.395614       2.178219   O         
atom        9.330547        10.493462       2.179008   O         
atom       15.650066        10.508157       0.040530   O         
atom       13.544466         8.402557       0.040530   O         
atom       15.627318         8.422886       6.446232   O         
atom       13.525402        10.534410       6.445699   O         
atom       15.630440        10.519499       4.285741   O         
atom       13.531703         8.410964       4.285829   O         
atom       15.650217         8.401813       2.166397   O         
atom       13.541742        10.503493       2.167430   O         
atom        3.016466        14.719357       0.040530   O         
atom        0.910866        12.613757       0.040530   O         
atom        2.989027        12.627506       6.447756   O         
atom        0.884213        14.730104       6.446177   O         
atom        2.995476        14.727412       4.285631   O         
atom        0.890805        12.622427       4.285746   O         
atom        3.018300        12.611214       2.168371   O         
atom        0.910229        14.717107       2.167928   O         
atom        7.227666        14.719357       0.040530   O         
atom        5.122066        12.613757       0.040530   O         
atom        7.199142        12.641605       6.448792   O         
atom        5.089829        14.730563       6.447679   O         
atom        7.206398        14.726935       4.285342   O         
atom        5.106672        12.620989       4.290106   O         
atom        7.226039        12.602380       2.172431   O         
atom        5.123588        14.716849       2.167908   O         
atom       11.438866        14.719357       0.040530   O         
atom        9.333266        12.613757       0.040530   O         
atom       11.417540        12.634828       6.445577   O         
atom        9.311106        14.731861       6.445950   O         
atom       11.421032        14.725701       4.284999   O         
atom        9.310259        12.628379       4.282463   O         
atom       11.435960        12.608846       2.167218   O         
atom        9.330555        14.714678       2.166752   O         
atom       15.650066        14.719357       0.040530   O         
atom       13.544466        12.613757       0.040530   O         
atom       15.626660        12.629505       6.446144   O         
atom       13.523335        14.730932       6.446231   O         
atom       15.630303        14.727461       4.285656   O         
atom       13.523854        12.622890       4.285421   O         
atom       15.648074        12.610434       2.166885   O         
atom       13.542572        14.715738       2.166870   O         
atom        0.882384        16.834585       6.398609   Mg        
atom        2.977622         2.083814       6.404927   Mg        
atom        0.910866         2.085757       0.040530   Mg        
atom        3.016466        16.824957       0.040530   Mg        
atom        0.907988        16.827675       2.165714   Mg        
atom        3.015754         2.088821       2.170100   Mg        
atom        0.893087         2.096897       4.296714   Mg        
atom        2.997120        16.835943       4.296403   Mg        
atom        5.083188        16.826801       6.402220   Mg        
atom        7.198040         2.013037       6.399707   Mg        
atom        5.122066         2.085757       0.040530   Mg        
atom        7.227666        16.824957       0.040530   Mg        
atom        5.117687        16.829916       2.169945   Mg        
atom        7.225890         2.084415       2.169372   Mg        
atom        5.100428         2.107548       4.323217   Mg        
atom        7.209352        16.823543       4.291520   Mg        
atom        9.325114        16.815475       6.395376   Mg        
atom       11.449184         2.062357       6.401179   Mg        
atom        9.333266         2.085757       0.040530   Mg        
atom       11.438866        16.824957       0.040530   Mg        
atom        9.332739        16.825152       2.167603   Mg        
atom       11.439754         2.085453       2.168824   Mg        
atom        9.327016         2.086048       4.313510   Mg        
atom       11.427803        16.826665       4.292478   Mg        
atom       13.532675        16.827121       6.396874   Mg        
atom       15.630842         2.092203       6.399577   Mg        
atom       13.544466         2.085757       0.040530   Mg        
atom       15.650066        16.824957       0.040530   Mg        
atom       13.543573        16.825132       2.164410   Mg        
atom       15.649215         2.087682       2.164767   Mg        
atom       13.535408         2.090263       4.293574   Mg        
atom       15.634595        16.832440       4.293867   Mg        
atom        0.880197         4.201168       6.400337   Mg        
atom        2.970927         6.310108       6.399104   Mg        
atom        0.910866         6.296957       0.040530   Mg        
atom        3.016466         4.191357       0.040530   Mg        
atom        0.911145         4.193120       2.169191   Mg        
atom        3.014271         6.296711       2.170760   Mg        
atom        0.891056         6.304781       4.295171   Mg        
atom        3.010290         4.197929       4.315790   Mg        
atom        4.994863         4.172597       6.645959   Mg        
atom        7.149086         6.297083       6.429313   Mg        
atom        5.122066         6.296957       0.040530   Mg        
atom        7.227666         4.191357       0.040530   Mg        
atom        5.118748         4.189774       2.178102   Mg        
atom        7.227379         6.291488       2.165630   Mg        
atom        5.095409         6.286115       4.323922   Mg        
atom        7.210959         4.182684       4.296685   Mg        
atom        9.415611         4.084947       6.556603   Mg        
atom       11.495171         6.313039       6.415569   Mg        
atom        9.333266         6.296957       0.040530   Mg        
atom       11.438866         4.191357       0.040530   Mg        
atom        9.337429         4.188479       2.175562   Mg        
atom       11.439957         6.295888       2.171206   Mg        
atom        9.334030         6.294300       4.313259   Mg        
atom       11.431229         4.191140       4.317544   Mg        
atom       13.543784         4.190783       6.400985   Mg        
atom       15.632883         6.311911       6.401065   Mg        
atom       13.544466         6.296957       0.040530   Mg        
atom       15.650066         4.191357       0.040530   Mg        
atom       13.544138         4.191419       2.168129   Mg        
atom       15.649398         6.298102       2.165216   Mg        
atom       13.539846         6.304637       4.297039   Mg        
atom       15.636729         4.198799       4.294867   Mg        
atom        0.879668         8.421085       6.399716   Mg        
atom        2.979354        10.532961       6.404303   Mg        
atom        0.910866        10.508157       0.040530   Mg        
atom        3.016466         8.402557       0.040530   Mg        
atom        0.907931         8.404635       2.166607   Mg        
atom        3.014135        10.510343       2.168151   Mg        
atom        0.890967        10.519352       4.296758   Mg        
atom        2.994071         8.411975       4.298654   Mg        
atom        5.028110         8.433579       6.426631   Mg        
atom        7.205906        10.585237       6.417635   Mg        
atom        5.122066        10.508157       0.040530   Mg        
atom        7.227666         8.402557       0.040530   Mg        
atom        5.118447         8.401668       2.172822   Mg        
atom        7.225073        10.509477       2.168796   Mg        
atom        5.105014        10.517982       4.307007   Mg        
atom        7.224922         8.407891       4.275383   Mg        
atom        9.412583         8.510367       6.541654   Mg        
atom       11.440792        10.547470       6.402199   Mg        
atom        9.333266        10.508157       0.040530   Mg        
atom       11.438866         8.402557       0.040530   Mg        
atom        9.336924         8.399921       2.171816   Mg        
atom       11.437487        10.508883       2.169507   Mg        
atom        9.321521        10.518290       4.311202   Mg        
atom       11.427721         8.414391       4.314172   Mg        
atom       13.538715         8.429257       6.402363   Mg        
atom       15.627310        10.528537       6.399785   Mg        
atom       13.544466        10.508157       0.040530   Mg        
atom       15.650066         8.402557       0.040530   Mg        
atom       13.543076         8.403703       2.169018   Mg        
atom       15.646699        10.509305       2.165494   Mg        
atom       13.529151        10.519394       4.295667   Mg        
atom       15.634180         8.413981       4.295741   Mg        
atom        0.882841        12.629642       6.399218   Mg        
atom        2.984618        14.732598       6.399818   Mg        
atom        0.910866        14.719357       0.040530   Mg        
atom        3.016466        12.613757       0.040530   Mg        
atom        0.906914        12.615225       2.165510   Mg        
atom        3.012891        14.721975       2.165703   Mg        
atom        0.891229        14.728977       4.295044   Mg        
atom        2.996721        12.624408       4.296716   Mg        
atom        5.087291        12.636587       6.403980   Mg        
atom        7.200402        14.732589       6.400554   Mg        
atom        5.122066        14.719357       0.040530   Mg        
atom        7.227666        12.613757       0.040530   Mg        
atom        5.118023        12.615036       2.168205   Mg        
atom        7.223688        14.720393       2.165569   Mg        
atom        5.100507        14.730090       4.297114   Mg        
atom        7.210623        12.629382       4.297969   Mg        
atom        9.319299        12.642369       6.399178   Mg        
atom       11.424042        14.730621       6.399089   Mg        
atom        9.333266        14.719357       0.040530   Mg        
atom       11.438866        12.613757       0.040530   Mg        
atom        9.330793        12.614504       2.168143   Mg        
atom       11.435936        14.719599       2.164556   Mg        
atom        9.316576        14.727406       4.292810   Mg        
atom       11.421520        12.625664       4.294835   Mg        
atom       13.526647        12.633629       6.399929   Mg        
atom       15.627574        14.731470       6.398577   Mg        
atom       13.544466        14.719357       0.040530   Mg        
atom       15.650066        12.613757       0.040530   Mg        
atom       13.540766        12.614452       2.165178   Mg        
atom       15.646823        14.720329       2.164535   Mg        
atom       13.528495        14.726423       4.293912   Mg        
atom       15.631166        12.624168       4.295154   Mg        
atom        5.801810         6.120550       9.228333   Ni        
atom        7.301133         8.089253       8.574350   Ni        
atom        7.212214         4.354651       8.476175   Ni        
atom        9.285048         6.127011       8.619402   Ni        
atom        5.425578         4.473699       8.673669   O         
atom        9.870084         7.731687       9.156456   O         
atom        8.987969         4.377692       8.561389   O         
atom        6.055780         7.738503       9.742267   O         
atom        9.002452         8.770314       8.710555   O         