lattice_vector     0.0000000000000000   16.8447999999999993    0.0000000000000000
lattice_vector     0.0000000000000000    0.0000000000000000   16.8447999999999993
lattice_vector    36.3168000000000006    0.0000000000000000    0.0000000000000000
atom       3.016466         2.085757      0.040530       O  
atom       0.910866        16.824957      0.040530       O  
atom       2.977964        16.830192      6.443168       O  
atom       0.873820         2.088501      6.441828       O  
atom       2.995358         2.093271      4.285794       O  
atom       0.889546        16.832825      4.284858       O  
atom       3.017130        16.826079      2.166583       O  
atom       0.912682         2.087316      2.166182       O  
atom       7.227666         2.085757      0.040530       O  
atom       5.122066        16.824957      0.040530       O  
atom       7.204819        16.813915      6.439600       O  
atom       5.088586         2.047243      6.432848       O  
atom       7.216911         2.088258      4.295630       O  
atom       5.102583        16.829989      4.284151       O  
atom       7.228805        16.825030      2.167504       O  
atom       5.128563         2.088707      2.173998       O  
atom      11.438866         2.085757      0.040530       O  
atom       9.333266        16.824957      0.040530       O  
atom      11.429687        16.821502      6.442407       O  
atom       9.327494         2.046897      6.439369       O  
atom      11.430505         2.086451      4.291117       O  
atom       9.319136        16.826890      4.284696       O  
atom      11.439821        16.823598      2.165917       O  
atom       9.336175         2.086746      2.174217       O  
atom      15.650066         2.085757      0.040530       O  
atom      13.544466        16.824957      0.040530       O  
atom      15.624627        16.832592      6.445830       O  
atom      13.535502         2.081031      6.442658       O  
atom      15.632046         2.092291      4.284613       O  
atom      13.528344        16.829761      4.283775       O  
atom      15.650311        16.823934      2.165749       O  
atom      13.546504         2.085198      2.165893       O  
atom       3.016466         6.296957      0.040530       O  
atom       0.910866         4.191357      0.040530       O  
atom       2.947207         4.181451      6.440337       O  
atom       0.869505         6.307941      6.446765       O  
atom       3.014621         6.299143      4.316218       O  
atom       0.889401         4.200499      4.285563       O  
atom       3.025980         4.193227      2.177799       O  
atom       0.918374         6.296828      2.173512       O  
atom       7.227666         6.296957      0.040530       O  
atom       5.122066         4.191357      0.040530       O  
atom       7.204688         4.147351      6.458059       O  
atom       5.048356         6.256077      6.583014       O  
atom       7.226986         6.301740      4.341384       O  
atom       5.125242         4.210856      4.335499       O  
atom       7.234894         4.193233      2.182310       O  
atom       5.132253         6.295354      2.182114       O  
atom      11.438866         6.296957      0.040530       O  
atom       9.333266         4.191357      0.040530       O  
atom      11.468931         4.176834      6.446232       O  
atom       9.368093         6.260821      6.593354       O  
atom      11.421899         6.296957      4.315886       O  
atom       9.322310         4.207017      4.334700       O  
atom      11.438725         4.189211      2.174794       O  
atom       9.333574         6.289910      2.181512       O  
atom      15.650066         6.296957      0.040530       O  
atom      13.544466         4.191357      0.040530       O  
atom      15.625529         4.198201      6.447200       O  
atom      13.544815         6.305115      6.451838       O  
atom      15.632321         6.305073      4.286730       O  
atom      13.534521         4.195314      4.286557       O  
atom      15.653327         4.192972      2.165569       O  
atom      13.542665         6.292506      2.170893       O  
atom       3.016466        10.508157      0.040530       O  
atom       0.910866         8.402557      0.040530       O  
atom       2.945271         8.422400      6.431579       O  
atom       0.876111        10.532567      6.441375       O  
atom       2.994829        10.517175      4.285784       O  
atom       0.888472         8.410408      4.285568       O  
atom       3.023427         8.396271      2.179466       O  
atom       0.909726        10.504171      2.167330       O  
atom       7.227666        10.508157      0.040530       O  
atom       5.122066         8.402557      0.040530       O  
atom       7.204281         8.498454      6.517413       O  
atom       5.081036        10.574300      6.426249       O  
atom       7.211849        10.511873      4.301605       O  
atom       5.124187         8.385014      4.353636       O  
atom       7.229355         8.390691      2.182615       O  
atom       5.123506        10.495918      2.178709       O  
atom      11.438866        10.508157      0.040530       O  
atom       9.333266         8.402557      0.040530       O  
atom      11.470609         8.421197      6.435347       O  
atom       9.330423        10.571856      6.430224       O  
atom      11.423781        10.516897      4.288496       O  
atom       9.313964         8.379107      4.351569       O  
atom      11.435863         8.390807      2.177583       O  
atom       9.331225        10.493306      2.178995       O  
atom      15.650066        10.508157      0.040530       O  
atom      13.544466         8.402557      0.040530       O  
atom      15.626873         8.421498      6.446545       O  
atom      13.527747        10.533693      6.443992       O  
atom      15.629097        10.517575      4.285174       O  
atom      13.533175         8.407411      4.285390       O  
atom      15.649438         8.399038      2.166729       O  
atom      13.541646        10.503401      2.167158       O  
atom       3.016466        14.719357      0.040530       O  
atom       0.910866        12.613757      0.040530       O  
atom       2.976345        12.638810      6.443006       O  
atom       0.879735        14.732435      6.443577       O  
atom       2.993942        14.728468      4.283871       O  
atom       0.888537        12.623501      4.283410       O  
atom       3.015012        12.610028      2.166786       O  
atom       0.909430        14.718070      2.166255       O  
atom       7.227666        14.719357      0.040530       O  
atom       5.122066        12.613757      0.040530       O  
atom       7.201746        12.645085      6.444645       O  
atom       5.089762        14.731219      6.444116       O  
atom       7.207157        14.727395      4.284819       O  
atom       5.100492        12.628163      4.282306       O  
atom       7.224757        12.605096      2.169296       O  
atom       5.122146        14.718698      2.165597       O  
atom      11.438866        14.719357      0.040530       O  
atom       9.333266        12.613757      0.040530       O  
atom      11.423774        12.639046      6.443786       O  
atom       9.311965        14.731730      6.446232       O  
atom      11.421040        14.726932      4.284981       O  
atom       9.313118        12.626571      4.283218       O  
atom      11.435874        12.608616      2.167309       O  
atom       9.330967        14.715617      2.166761       O  
atom      15.650066        14.719357      0.040530       O  
atom      13.544466        12.613757      0.040530       O  
atom      15.624823        12.631671      6.444468       O  
atom      13.523550        14.731765      6.445487       O  
atom      15.629195        14.728080      4.284967       O  
atom      13.523884        12.623297      4.284948       O  
atom      15.647636        12.610230      2.166888       O  
atom      13.542343        14.715934      2.166780       O  
atom       0.876078        16.829071      6.397335       Mg 
atom       2.962263         2.065810      6.400625       Mg 
atom       0.910866         2.085757      0.040530       Mg 
atom       3.016466        16.824957      0.040530       Mg 
atom       0.906647        16.826313      2.164346       Mg 
atom       3.013857         2.087193      2.168746       Mg 
atom       0.888952         2.092802      4.293391       Mg 
atom       2.995331        16.830624      4.292890       Mg 
atom       5.085554        16.817657      6.398643       Mg 
atom       7.208905         2.017000      6.390802       Mg 
atom       5.122066         2.085757      0.040530       Mg 
atom       7.227666        16.824957      0.040530       Mg 
atom       5.118283        16.826145      2.167912       Mg 
atom       7.228606         2.080162      2.167601       Mg 
atom       5.100506         2.093568      4.312720       Mg 
atom       7.213043        16.819814      4.290227       Mg 
atom       9.325267        16.814642      6.399672       Mg 
atom      11.450568         2.061294      6.403797       Mg 
atom       9.333266         2.085757      0.040530       Mg 
atom      11.438866        16.824957      0.040530       Mg 
atom       9.333229        16.825109      2.167668       Mg 
atom      11.440071         2.085363      2.168421       Mg 
atom       9.330761         2.090644      4.315401       Mg 
atom      11.427038        16.826491      4.292649       Mg 
atom      13.531244        16.825536      6.397597       Mg 
atom      15.626626         2.086303      6.399022       Mg 
atom      13.544466         2.085757      0.040530       Mg 
atom      15.650066        16.824957      0.040530       Mg 
atom      13.542622        16.824700      2.164028       Mg 
atom      15.647802         2.087424      2.163622       Mg 
atom      13.534678         2.088435      4.293476       Mg 
atom      15.631979        16.831240      4.292826       Mg 
atom       0.869545         4.188046      6.401868       Mg 
atom       2.923687         6.302808      6.423050       Mg 
atom       0.910866         6.296957      0.040530       Mg 
atom       3.016466         4.191357      0.040530       Mg 
atom       0.909814         4.192314      2.169467       Mg 
atom       3.011690         6.297337      2.170367       Mg 
atom       0.886691         6.305185      4.299268       Mg 
atom       3.002276         4.192377      4.319101       Mg 
atom       4.996596         4.093861      6.590213       Mg 
atom       7.208887         6.282809      6.316255       Mg 
atom       5.122066         6.296957      0.040530       Mg 
atom       7.227666         4.191357      0.040530       Mg 
atom       5.120070         4.187842      2.175271       Mg 
atom       7.230044         6.295384      2.163091       Mg 
atom       5.088819         6.296364      4.290227       Mg 
atom       7.222050         4.165701      4.295883       Mg 
atom       9.420979         4.095599      6.604637       Mg 
atom      11.494680         6.299835      6.426310       Mg 
atom       9.333266         6.296957      0.040530       Mg 
atom      11.438866         4.191357      0.040530       Mg 
atom       9.340256         4.185525      2.174233       Mg 
atom      11.444015         6.294418      2.168936       Mg 
atom       9.349695         6.292317      4.290134       Mg 
atom      11.428987         4.186875      4.321315       Mg 
atom      13.543679         4.183691      6.404327       Mg 
atom      15.627481         6.308813      6.403705       Mg 
atom      13.544466         6.296957      0.040530       Mg 
atom      15.650066         4.191357      0.040530       Mg 
atom      13.543872         4.191116      2.168344       Mg 
atom      15.648260         6.298181      2.166602       Mg 
atom      13.538533         6.301772      4.299381       Mg 
atom      15.634118         4.197891      4.294984       Mg 
atom       0.871527         8.427711      6.400304       Mg 
atom       2.964911        10.549181      6.400362       Mg 
atom       0.910866        10.508157      0.040530       Mg 
atom       3.016466         8.402557      0.040530       Mg 
atom       0.908265         8.404570      2.170027       Mg 
atom       3.011922        10.509219      2.170462       Mg 
atom       0.887873        10.519019      4.294256       Mg 
atom       2.999603         8.413645      4.320097       Mg 
atom       4.994634         8.518525      6.580420       Mg 
atom       7.207526        10.597746      6.404224       Mg 
atom       5.122066        10.508157      0.040530       Mg 
atom       7.227666         8.402557      0.040530       Mg 
atom       5.118719         8.405025      2.177570       Mg 
atom       7.225707        10.510348      2.170616       Mg 
atom       5.098442        10.516959      4.316978       Mg 
atom       7.218635         8.432225      4.306103       Mg 
atom       9.423387         8.516424      6.592085       Mg 
atom      11.445689        10.548875      6.403006       Mg 
atom       9.333266        10.508157      0.040530       Mg 
atom      11.438866         8.402557      0.040530       Mg 
atom       9.336284         8.402047      2.177006       Mg 
atom      11.437001        10.507222      2.170025       Mg 
atom       9.325573        10.514317      4.319221       Mg 
atom      11.426782         8.411008      4.321772       Mg 
atom      13.539161         8.426252      6.402584       Mg 
atom      15.625044        10.530588      6.398578       Mg 
atom      13.544466        10.508157      0.040530       Mg 
atom      15.650066         8.402557      0.040530       Mg 
atom      13.542570         8.403073      2.169377       Mg 
atom      15.645639        10.508983      2.164731       Mg 
atom      13.529434        10.518188      4.294998       Mg 
atom      15.632305         8.412722      4.295435       Mg 
atom       0.877328        12.634033      6.396874       Mg 
atom       2.980271        14.731906      6.397699       Mg 
atom       0.910866        14.719357      0.040530       Mg 
atom       3.016466        12.613757      0.040530       Mg 
atom       0.905638        12.615124      2.164676       Mg 
atom       3.011635        14.720808      2.164402       Mg 
atom       0.889128        14.728030      4.293487       Mg 
atom       2.994037        12.626230      4.294366       Mg 
atom       5.082793        12.642905      6.399217       Mg 
atom       7.202992        14.729739      6.399863       Mg 
atom       5.122066        14.719357      0.040530       Mg 
atom       7.227666        12.613757      0.040530       Mg 
atom       5.116481        12.614561      2.168940       Mg 
atom       7.224091        14.719305      2.163961       Mg 
atom       5.100203        14.728084      4.293360       Mg 
atom       7.208678        12.631012      4.294121       Mg 
atom       9.324141        12.642637      6.400515       Mg 
atom      11.424741        14.730550      6.399479       Mg 
atom       9.333266        14.719357      0.040530       Mg 
atom      11.438866        12.613757      0.040530       Mg 
atom       9.330799        12.613113      2.169228       Mg 
atom      11.435539        14.719369      2.164504       Mg 
atom       9.317987        14.725857      4.293918       Mg 
atom      11.421847        12.625442      4.294883       Mg 
atom      13.526858        12.635199      6.398415       Mg 
atom      15.624907        14.731489      6.398428       Mg 
atom      13.544466        14.719357      0.040530       Mg 
atom      15.650066        12.613757      0.040530       Mg 
atom      13.540052        12.614355      2.164861       Mg 
atom      15.645590        14.720121      2.164305       Mg 
atom      13.527230        14.726471      4.293467       Mg 
atom      15.629714        12.624080      4.293999       Mg 
atom       8.733058         6.297244      8.487838       Ni 
atom       7.206172         8.023735      8.431904       Ni 
atom       5.652715         6.277797      8.491842       Ni 
atom       7.187598         4.408354      8.474386       Ni 
atom       9.021010         8.112422      8.547031       O  
atom       5.392098         8.094893      8.532925       O  
atom       7.202815         6.680658      9.715698       O  
atom       5.418566         4.463271      8.665259       O  
atom       8.958010         4.478117      8.647609       O   