lattice_vector     0.0000000000000000   16.8447999999999993    0.0000000000000000
lattice_vector     0.0000000000000000    0.0000000000000000   16.8447999999999993 
lattice_vector    36.3168000000000006    0.0000000000000000    0.0000000000000000
atom 0.040530 3.016466 2.085757 O
atom 0.040530 0.910866 16.824957 O
atom 6.446361 2.985493 16.834224 O
atom 6.447128 0.883940 2.094823 O
atom 4.286227 2.995751 2.094723 O
atom 4.285640 0.890674 16.833000 O
atom 2.168911 3.017508 16.824596 O
atom 2.167793 0.912124 2.085176 O
atom 0.040530 7.227666 2.085757 O
atom 0.040530 5.122066 16.824957 O
atom 6.451122 7.199514 16.830519 O
atom 6.447659 5.082037 2.091325 O
atom 4.307375 7.211882 2.100206 O
atom 4.289568 5.103395 16.833515 O
atom 2.171600 7.230153 16.825097 O
atom 2.172065 5.127690 2.086035 O
atom 0.040530 11.438866 2.085757 O
atom 0.040530 9.333266 16.824957 O
atom 6.447413 11.420149 16.830360 O
atom 6.446587 9.320969 2.074781 O
atom 4.292385 11.429297 2.086330 O
atom 4.290246 9.314294 16.831155 O
atom 2.168796 11.438314 16.821622 O
atom 2.174320 9.335588 2.085430 O
atom 0.040530 15.650066 2.085757 O
atom 0.040530 13.544466 16.824957 O
atom 6.448736 15.628015 16.833139 O
atom 6.451589 13.536552 2.082480 O
atom 4.287858 15.634320 2.090314 O
atom 4.287995 13.528473 16.829214 O
atom 2.167894 15.649160 16.821819 O
atom 2.168244 13.546207 2.083144 O
atom 0.040530 3.016466 6.296957 O
atom 0.040530 0.910866 4.191357 O
atom 6.443705 2.971455 4.199433 O
atom 6.444096 0.881484 6.309923 O
atom 4.275180 2.984940 6.308569 O
atom 4.285511 0.889793 4.199294 O
atom 2.170315 3.020984 4.191831 O
atom 2.164943 0.909637 6.298053 O
atom 0.040530 7.227666 6.296957 O
atom 0.040530 5.122066 4.191357 O
atom 6.559352 7.160377 4.140998 O
atom 6.374485 5.032943 6.308162 O
atom 4.347284 7.229536 6.294411 O
atom 4.301726 5.116023 4.196017 O
atom 2.178793 7.236072 4.191915 O
atom 2.177645 5.130985 6.295218 O
atom 0.040530 11.438866 6.296957 O
atom 6.447916 11.463959 4.178675 O
atom 6.421774 9.448102 6.298007 O
atom 0.040530 9.333266 4.191357 O
atom 4.292774 11.443259 6.299029 O
atom 4.329842 9.316987 4.193009 O
atom 2.175076 11.439408 4.185800 O
atom 2.182193 9.334479 6.289127 O
atom 0.040530 15.650066 6.296957 O
atom 0.040530 13.544466 4.191357 O
atom 6.449181 15.631102 4.200071 O
atom 6.445674 13.553815 6.310655 O
atom 4.285747 15.634910 6.305339 O
atom 4.289378 13.537378 4.193665 O
atom 2.167636 15.652015 4.189371 O
atom 2.166752 13.548010 6.294844 O
atom 0.040530 3.016466 10.508157 O
atom 0.040530 0.910866 8.402557 O
atom 6.445803 2.972003 8.422497 O
atom 6.450509 0.882621 10.527240 O
atom 4.288239 2.996526 10.517164 O
atom 4.286378 0.887220 8.414912 O
atom 2.170913 3.020776 8.402734 O
atom 2.168444 0.911653 10.507990 O
atom 0.040530 7.227666 10.508157 O
atom 0.040530 5.122066 8.402557 O
atom 6.545044 7.159252 8.462737 O
atom 6.452395 5.084554 10.528797 O
atom 4.310833 7.211646 10.504339 O
atom 4.301132 5.116092 8.411600 O
atom 2.179573 7.230423 8.391627 O
atom 2.173348 5.126244 10.503626 O
atom 0.040530 11.438866 10.508157 O
atom 0.040530 9.333266 8.402557 O
atom 6.446983 11.453012 8.427571 O
atom 6.446109 9.313678 10.535915 O
atom 4.289811 11.420409 10.516658 O
atom 4.332126 9.311275 8.394888 O
atom 2.174560 11.436412 8.395024 O
atom 2.177159 9.331513 10.495752 O
atom 0.040530 15.650066 10.508157 O
atom 0.040530 13.544466 8.402557 O
atom 6.446767 15.627500 8.422400 O
atom 6.446617 13.524996 10.534027 O
atom 4.286253 15.630693 10.519765 O
atom 4.289201 13.531973 8.412902 O
atom 2.166796 15.650099 8.403365 O
atom 2.168174 13.541903 10.504367 O
atom 0.040530 3.016466 14.719357 O
atom 0.040530 0.910866 12.613757 O
atom 6.450999 2.986259 12.630597 O
atom 6.447277 0.884763 14.731663 O
atom 4.287182 2.996086 14.727994 O
atom 4.286372 0.890367 12.622799 O
atom 2.169100 3.017424 12.612450 O
atom 2.168481 0.910754 14.717356 O
atom 0.040530 7.227666 14.719357 O
atom 0.040530 5.122066 12.613757 O
atom 6.454086 7.198293 12.634453 O
atom 6.449484 5.092602 14.731551 O
atom 4.289907 7.207838 14.727248 O
atom 4.290591 5.104164 12.622208 O
atom 2.173542 7.227965 12.605894 O
atom 2.169405 5.122964 14.717974 O
atom 0.040530 11.438866 14.719357 O
atom 0.040530 9.333266 12.613757 O
atom 6.447021 11.416141 12.632151 O
atom 6.449691 9.308370 14.732017 O
atom 4.286959 11.418436 14.727861 O
atom 4.289743 9.312824 12.622114 O
atom 2.168033 11.435236 12.608690 O
atom 2.168486 9.330865 14.715366 O
atom 0.040530 15.650066 14.719357 O
atom 0.040530 13.544466 12.613757 O
atom 6.447098 15.626259 12.631073 O
atom 6.446872 13.520996 14.731632 O
atom 4.285749 15.629998 14.727596 O
atom 4.285813 13.523628 12.622884 O
atom 2.167139 15.647868 12.611537 O
atom 2.167385 13.541670 14.715015 O
atom 6.399267 0.883305 16.833179 Mg
atom 6.401074 2.979309 2.087540 Mg
atom 0.040530 0.910866 2.085757 Mg
atom 0.040530 3.016466 16.824957 Mg
atom 2.165497 0.907337 16.825699 Mg
atom 2.167335 3.014359 2.086333 Mg
atom 4.295480 0.891113 2.092846 Mg
atom 4.295893 2.995637 16.832779 Mg
atom 6.402634 5.086295 16.831580 Mg
atom 6.438380 7.200517 2.051068 Mg
atom 0.040530 5.122066 2.085757 Mg
atom 0.040530 7.227666 16.824957 Mg
atom 2.168119 5.119944 16.825950 Mg
atom 2.169449 7.228365 2.083799 Mg
atom 4.307249 5.103171 2.092054 Mg
atom 4.301576 7.210276 16.831959 Mg
atom 6.405126 9.317925 16.828745 Mg
atom 6.407881 11.441987 2.075481 Mg
atom 0.040530 9.333266 2.085757 Mg
atom 0.040530 11.438866 16.824957 Mg
atom 2.169177 9.332122 16.825404 Mg
atom 2.169607 11.439043 2.084447 Mg
atom 4.313982 9.322976 2.088673 Mg
atom 4.297601 11.424262 16.830043 Mg
atom 6.400939 13.528739 16.829242 Mg
atom 6.401673 15.631305 2.089205 Mg
atom 0.040530 13.544466 2.085757 Mg
atom 0.040530 15.650066 16.824957 Mg
atom 2.165846 13.542090 16.824406 Mg
atom 2.165654 15.647875 2.085776 Mg
atom 4.297501 13.534596 2.087900 Mg
atom 4.295705 15.632925 16.831136 Mg
atom 6.400174 0.880574 4.199911 Mg
atom 6.390518 2.967684 6.310268 Mg
atom 0.040530 0.910866 6.296957 Mg
atom 0.040530 3.016466 4.191357 Mg
atom 2.165258 0.906605 4.192295 Mg
atom 2.165131 3.007770 6.299645 Mg
atom 4.292581 0.887397 6.307323 Mg
atom 4.294933 2.990867 4.198980 Mg
atom 6.422701 5.030833 4.190767 Mg
atom 6.403437 7.090156 6.301191 Mg
atom 0.040530 5.122066 6.296957 Mg
atom 0.040530 7.227666 4.191357 Mg
atom 2.169411 5.120225 4.189621 Mg
atom 2.170172 7.230709 6.295555 Mg
atom 4.292495 5.084631 6.304048 Mg
atom 4.292121 7.219469 4.183926 Mg
atom 6.491809 9.380273 4.140912 Mg
atom 6.404526 11.509991 6.302214 Mg
atom 0.040530 9.333266 6.296957 Mg
atom 0.040530 11.438866 4.191357 Mg
atom 2.173006 9.338776 4.188115 Mg
atom 2.170636 11.443341 6.295522 Mg
atom 4.312657 9.343266 6.296254 Mg
atom 4.311719 11.435788 4.190039 Mg
atom 6.405534 13.546262 4.185539 Mg
atom 6.400428 15.633364 6.310719 Mg
atom 0.040530 13.544466 6.296957 Mg
atom 0.040530 15.650066 4.191357 Mg
atom 2.167706 13.544646 4.190222 Mg
atom 2.163429 15.648209 6.298532 Mg
atom 4.292369 13.543172 6.302799 Mg
atom 4.295730 15.636189 4.197273 Mg
atom 6.400035 0.879085 8.421659 Mg
atom 6.403702 2.980016 10.532326 Mg
atom 0.040530 0.910866 10.508157 Mg
atom 0.040530 3.016466 8.402557 Mg
atom 2.165646 0.905391 8.406682 Mg
atom 2.167810 3.014175 10.510903 Mg
atom 4.296807 0.889422 10.520107 Mg
atom 4.295532 2.991079 8.414671 Mg
atom 6.423564 5.031616 8.422910 Mg
atom 6.438191 7.199422 10.562229 Mg
atom 0.040530 5.122066 10.508157 Mg
atom 0.040530 7.227666 8.402557 Mg
atom 2.170145 5.119625 8.405846 Mg
atom 2.170935 7.226172 10.509216 Mg
atom 4.308966 5.104261 10.517824 Mg
atom 4.296466 7.216906 8.415455 Mg
atom 6.488653 9.374864 8.463503 Mg
atom 6.405428 11.432053 10.535448 Mg
atom 0.040530 9.333266 10.508157 Mg
atom 0.040530 11.438866 8.402557 Mg
atom 2.174633 9.335443 8.400780 Mg
atom 2.169686 11.435658 10.507898 Mg
atom 4.314211 9.318099 10.514226 Mg
atom 4.310782 11.430257 8.410257 Mg
atom 6.404047 13.538524 8.428584 Mg
atom 6.399865 15.626679 10.529136 Mg
atom 0.040530 13.544466 10.508157 Mg
atom 0.040530 15.650066 8.402557 Mg
atom 2.167881 13.542581 8.404385 Mg
atom 2.165493 15.645913 10.510505 Mg
atom 4.297038 13.527587 10.519955 Mg
atom 4.296246 15.632281 8.414908 Mg
atom 6.400366 0.883133 12.630150 Mg
atom 6.399916 2.986338 14.731509 Mg
atom 0.040530 0.910866 14.719357 Mg
atom 0.040530 3.016466 12.613757 Mg
atom 2.165672 0.906959 12.615100 Mg
atom 2.166463 3.013301 14.720412 Mg
atom 4.295564 0.890809 14.727627 Mg
atom 4.297595 2.996218 12.623798 Mg
atom 6.405991 5.087740 12.632013 Mg
atom 6.403978 7.200678 14.732140 Mg
atom 0.040530 5.122066 14.719357 Mg
atom 0.040530 7.227666 12.613757 Mg
atom 2.168812 5.119481 12.614670 Mg
atom 2.168198 7.225399 14.719995 Mg
atom 4.299090 5.102893 14.727821 Mg
atom 4.303218 7.209626 12.623027 Mg
atom 6.405175 9.315223 12.632690 Mg
atom 6.400707 11.417896 14.731791 Mg
atom 0.040530 9.333266 14.719357 Mg
atom 0.040530 11.438866 12.613757 Mg
atom 2.169430 9.330201 12.612895 Mg
atom 2.165767 11.434675 14.719475 Mg
atom 4.298789 9.314476 14.727440 Mg
atom 4.297600 11.419808 12.623430 Mg
atom 6.399565 13.523323 12.631802 Mg
atom 6.399253 15.626713 14.731074 Mg
atom 0.040530 13.544466 14.719357 Mg
atom 0.040530 15.650066 12.613757 Mg
atom 2.165138 13.539664 12.614443 Mg
atom 2.165071 15.645837 14.719850 Mg
atom 4.295472 13.525844 14.726788 Mg
atom 4.295557 15.630432 12.624313 Mg
atom 8.410170 7.384737 4.821059 Ni
atom 8.401214 7.384331 7.795270 Ni
atom 10.130494 7.723055 6.314592 Ni
atom 8.326613 9.087636 6.307278 Ni
