lattice_vector     0.0000000000000000   16.8447999999999993    0.0000000000000000	
lattice_vector     0.0000000000000000    0.0000000000000000   16.8447999999999993	
lattice_vector    36.3168000000000006    0.0000000000000000    0.0000000000000000	
atom_frac   0.1790740000000000  0.1238219999999970  0.0011160000000032 	O
atom_frac   0.0540740000000000  0.9988219999999970  0.0011160000000032 	O    
atom_frac   0.1772352709060613  0.9993721562883882  0.1775035588818077 	O    
atom_frac   0.0524755568423703  0.1243601927109425  0.1775246593296911 	O    
atom_frac   0.1778442361720537  0.1243543008262078  0.1180232602160916 	O    
atom_frac   0.0528753142556965  0.9992995137354758  0.1180070840927559 	O    
atom_frac   0.1791358601850361  0.9988005961805632  0.0597219696967656 	O    
atom_frac   0.0541487249118480  0.1237875311294945  0.0596912031349970 	O    
atom_frac   0.4290740000000000  0.1238219999999970  0.0011160000000032 	O    
atom_frac   0.3040740000000000  0.9988219999999970  0.0011160000000032 	O    
atom_frac   0.4274027794216584  0.9991522119550956  0.1776346433473560 	O    
atom_frac   0.3016976786025022  0.1241525360051062  0.1775392803921049 	O    
atom_frac   0.4281370056098231  0.1246797824869643  0.1186055766096478 	O    
atom_frac   0.3029656098591853  0.9993300694833998  0.1181152405242686 	O    
atom_frac   0.4292216442039276  0.9988303043397151  0.0597960204289073 	O    
atom_frac   0.3044079103093733  0.1238385342648936  0.0598088258735204 	O    
atom_frac   0.6790740000000000  0.1238219999999970  0.0011160000000032 	O    
atom_frac   0.5540740000000000  0.9988219999999970  0.0011160000000032 	O    
atom_frac   0.6779628626941377  0.9991427756351299  0.1775325148521656 	O    
atom_frac   0.5533439819536576  0.1231704048663595  0.1775097712156211 	O    
atom_frac   0.6785059249856872  0.1238560197720558  0.1181928111669411 	O    
atom_frac   0.5529477302661414  0.9991899663394030  0.1181339268384499 	O    
atom_frac   0.6790412677052488  0.9986240244873098  0.0597187998377978 	O    
atom_frac   0.5542118800830791  0.1238025953033310  0.0598709065373081 	O    
atom_frac   0.9290740000000000  0.1238219999999970  0.0011160000000032 	O    
atom_frac   0.8040740000000000  0.9988219999999970  0.0011160000000032 	O    
atom_frac   0.9277649564838647  0.9993077284831364  0.1775689509436915 	O    
atom_frac   0.8036042039338229  0.1236274542456126  0.1776474966167799 	O    
atom_frac   0.9281392206828196  0.1240925634705237  0.1180681593875613 	O    
atom_frac   0.8031245561390787  0.9990747136887931  0.1180719276353426 	O    
atom_frac   0.9290202546596630  0.9986357442564948  0.0596939630958048 	O    
atom_frac   0.8041773817791724  0.1236668967182270  0.0597036185484649 	O    
atom_frac   0.1790740000000000  0.3738219999999970  0.0011160000000032 	O    
atom_frac   0.0540740000000000  0.2488219999999970  0.0011160000000032 	O    
atom_frac   0.1764018869370188  0.2493014609649498  0.1774304153037227 	O    
atom_frac   0.0523297457253723  0.3745917617106744  0.1774411720365567 	O    
atom_frac   0.1772024648369349  0.3745113600644683  0.1177190846943485 	O    
atom_frac   0.0528230352777332  0.2492932061085499  0.1180035448851958 	O    
atom_frac   0.1793422024791056  0.2488501336139987  0.0597606283997102 	O    
atom_frac   0.0540010486924780  0.3738871022675247  0.0596127070316915 	O    
atom_frac   0.4290740000000000  0.3738219999999970  0.0011160000000032 	O    
atom_frac   0.3040740000000000  0.2488219999999970  0.0011160000000032 	O    
atom_frac   0.4250793861026664  0.2458324465189875  0.1806148118704876 	O    
atom_frac   0.2987831731533460  0.3744871989777558  0.1755244169865008 	O    
atom_frac   0.4291850096920221  0.3736708672090231  0.1197044829609657 	O    
atom_frac   0.3037152741565236  0.2490986299013713  0.1184500251352870 	O    
atom_frac   0.4295730156411475  0.2488551594411517  0.0599940843155630 	O    
atom_frac   0.3046034859220402  0.3737187570513660  0.0599624700127280 	O    
atom_frac   0.6790740000000000  0.3738219999999970  0.0011160000000032 	O    
atom_frac   0.5540740000000000  0.2488219999999970  0.0011160000000032 	O    
atom_frac   0.6805636768047999  0.2480691306023058  0.1775463731830919 	O    
atom_frac   0.5608913367348624  0.3738843626040357  0.1768265335020816 	O    
atom_frac   0.6793348163606161  0.3739449945388463  0.1182035200774940 	O    
atom_frac   0.5531075975954216  0.2489200556976983  0.1192242060472105 	O    
atom_frac   0.6791061638432182  0.2484921151630269  0.0598917408821165 	O    
atom_frac   0.5541460287605389  0.3733571997985725  0.0600877021678306 	O    
atom_frac   0.9290740000000000  0.3738219999999970  0.0011160000000032 	O    
atom_frac   0.8040740000000000  0.2488219999999970  0.0011160000000032 	O    
atom_frac   0.9279482346132161  0.2493393445390765  0.1775812021057977 	O    
atom_frac   0.8046290277570722  0.3746352132115812  0.1774846359137512 	O    
atom_frac   0.9281742453897963  0.3743195982997631  0.1180100526237765 	O    
atom_frac   0.8036532250617118  0.2489590107699828  0.1181100127346067 	O    
atom_frac   0.9291897378756367  0.2487041015729340  0.0596868669383078 	O    
atom_frac   0.8042844071139104  0.3736965455622221  0.0596625293109438 	O    
atom_frac   0.1790740000000000  0.6238219999999970  0.0011160000000032 	O    
atom_frac   0.0540740000000000  0.4988219999999970  0.0011160000000032 	O    
atom_frac   0.1764344434880903  0.5000057374286906  0.1774881893185087 	O    
atom_frac   0.0523972155341746  0.6249548538426167  0.1776177622210651 	O    
atom_frac   0.1778902561676114  0.6243566933271553  0.1180786652096941 	O    
atom_frac   0.0526702677081167  0.4995554584940095  0.1180274119637065 	O    
atom_frac   0.1793298901085240  0.4988324926180082  0.0597770979010315 	O    
atom_frac   0.0541207653717746  0.6238120980129948  0.0597091160808533 	O    
atom_frac   0.4290740000000000  0.6238219999999970  0.0011160000000032 	O    
atom_frac   0.3040740000000000  0.4988219999999970  0.0011160000000032 	O    
atom_frac   0.4250125793957455  0.5023946314088912  0.1802208298477523 	O    
atom_frac   0.3018471170857345  0.6250473287246174  0.1776697022201537 	O    
atom_frac   0.4281229679020458  0.6235953792833082  0.1187008053117801 	O    
atom_frac   0.3037193783914971  0.4993588338278203  0.1184336768393128 	O    
atom_frac   0.4292377054080909  0.4981731574330427  0.0600155667165914 	O    
atom_frac   0.3043220288361381  0.6235530098048656  0.0598441467268304 	O    
atom_frac   0.6790740000000000  0.6238219999999970  0.0011160000000032 	O    
atom_frac   0.5540740000000000  0.4988219999999970  0.0011160000000032 	O    
atom_frac   0.6799137896610619  0.5003069554717419  0.1775206698865426 	O    
atom_frac   0.5529111792322494  0.6254698616966583  0.1774966067471690 	O    
atom_frac   0.6779782900468745  0.6243266533053488  0.1181219311999519 	O    
atom_frac   0.5527684919963495  0.4983667286777649  0.1192870940520326 	O    
atom_frac   0.6789283084625189  0.4983747884825660  0.0598775157146885 	O    
atom_frac   0.5539699680406102  0.6230855606777161  0.0599490899317696 	O    
atom_frac   0.9290740000000000  0.6238219999999970  0.0011160000000032 	O    
atom_frac   0.8040740000000000  0.4988219999999970  0.0011160000000032 	O    
atom_frac   0.9277343751044687  0.5000000004478640  0.1775147411689463 	O    
atom_frac   0.8029181778120856  0.6253577902622798  0.1775105886550185 	O    
atom_frac   0.9279239146737912  0.6245111380647943  0.1180239721960841 	O    
atom_frac   0.8033323558625335  0.4994361189108683  0.1181051531260101 	O    
atom_frac   0.9290759875823514  0.4988699928672450  0.0596637502034496 	O    
atom_frac   0.8039218636379885  0.6235970391972097  0.0597016688818300 	O    
atom_frac   0.1790740000000000  0.8738219999999970  0.0011160000000032 	O    
atom_frac   0.0540740000000000  0.7488219999999970  0.0011160000000032 	O    
atom_frac   0.1772807705464778  0.7498217471220123  0.1776312744460804 	O    
atom_frac   0.0525243887072846  0.8745525786734923  0.1775287640782203 	O    
atom_frac   0.1778641483918837  0.8743347456138736  0.1180495604969419 	O    
atom_frac   0.0528570591648554  0.7493587704891856  0.1180272393676853 	O    
atom_frac   0.1791308613130325  0.7487444133347235  0.0597271690642941 	O    
atom_frac   0.0540673748378012  0.8737031919688077  0.0597101327466611 	O    
atom_frac   0.4290740000000000  0.8738219999999970  0.0011160000000032 	O    
atom_frac   0.3040740000000000  0.7488219999999970  0.0011160000000032 	O    
atom_frac   0.4273303029952102  0.7500506282901891  0.1777162610648366 	O    
atom_frac   0.3023248427076531  0.8745459328604007  0.1775895580730813 	O    
atom_frac   0.4278969460739701  0.8742904850452146  0.1181245908655183 	O    
atom_frac   0.3030112845189024  0.7493237151506902  0.1181434243756999 	O    
atom_frac   0.4290917592979882  0.7483552311259518  0.0598494879169044 	O    
atom_frac   0.3041273257071361  0.8737399012048764  0.0597355781122411 	O    
atom_frac   0.6790740000000000  0.8738219999999970  0.0011160000000032 	O    
atom_frac   0.5540740000000000  0.7488219999999970  0.0011160000000032 	O    
atom_frac   0.6777249108257587  0.7499139544187938  0.1775217159408139 	O    
atom_frac   0.5525960451632449  0.8745735885736491  0.1775952320914746 	O    
atom_frac   0.6778612002661664  0.8743268411796020  0.1180434119070577 	O    
atom_frac   0.5528604601955285  0.7493181302406299  0.1181200588693792 	O    
atom_frac   0.6788585244804863  0.7485211954923155  0.0596978066428418 	O    
atom_frac   0.5539314941811384  0.8735851110017268  0.0597102759556766 	O    
atom_frac   0.9290740000000000  0.8738219999999970  0.0011160000000032 	O    
atom_frac   0.8040740000000000  0.7488219999999970  0.0011160000000032 	O    
atom_frac   0.9276606855405031  0.7498500093317244  0.1775238511010438 	O    
atom_frac   0.8026807055276372  0.8745507408474739  0.1775176331094694 	O    
atom_frac   0.9278826921700143  0.8743111033163611  0.1180100927657082 	O    
atom_frac   0.8028369591982937  0.7493638242135435  0.1180118451456640 	O    
atom_frac   0.9289435311999413  0.7486901977400500  0.0596731699557851 	O    
atom_frac   0.8039080406152525  0.8735642506522681  0.0596799569983750 	O    
atom_frac   0.0524378217844478  0.9993101217053106  0.1762067889130575 	Mg   
atom_frac   0.1768681654347000  0.1239278641991545  0.1762565414657628 	Mg   
atom_frac   0.0540740000000000  0.1238219999999970  0.0011160000000032 	Mg   
atom_frac   0.1790740000000000  0.9988219999999970  0.0011160000000032 	Mg   
atom_frac   0.0538645448654672  0.9988660461476506  0.0596279774603714 	Mg   
atom_frac   0.1789489137809238  0.1238561840665217  0.0596785759943628 	Mg   
atom_frac   0.0529013602358293  0.1242428361802791  0.1182780415501508 	Mg   
atom_frac   0.1778374983346599  0.9992863756563992  0.1182894167542475 	Mg   
atom_frac   0.3019504694795982  0.9992152097128424  0.1762995172671696 	Mg   
atom_frac   0.4274623056642465  0.1217626698416450  0.1772838048615823 	Mg   
atom_frac   0.3040740000000000  0.1238219999999970  0.0011160000000032 	Mg   
atom_frac   0.4290740000000000  0.9988219999999970  0.0011160000000032 	Mg   
atom_frac   0.3039480571091563  0.9988809838212515  0.0597001685274589 	Mg   
atom_frac   0.4291154987915548  0.1237057970691781  0.0597367914676819 	Mg   
atom_frac   0.3029523156645736  0.1241958139596188  0.1186021039723524 	Mg   
atom_frac   0.4280416624839151  0.9992376680122244  0.1184459091106283 	Mg   
atom_frac   0.5531632994909906  0.9990469155551708  0.1763681288909350 	Mg   
atom_frac   0.6792592732642944  0.1232119551528500  0.1764439743400240 	Mg   
atom_frac   0.5540740000000000  0.1238219999999970  0.0011160000000032 	Mg   
atom_frac   0.6790740000000000  0.9988219999999970  0.0011160000000032 	Mg   
atom_frac   0.5540061055352641  0.9988485678851104  0.0597293112341124 	Mg   
atom_frac   0.6790845464072077  0.1237442466722863  0.0597411387220488 	Mg   
atom_frac   0.5534631499059653  0.1239951326262701  0.1187874924295267 	Mg   
atom_frac   0.6782070146900800  0.9991239599046849  0.1183364426141342 	Mg   
atom_frac   0.8031403621766556  0.9990764142051285  0.1762528371101419 	Mg   
atom_frac   0.9279602342151697  0.1240266915263962  0.1762730418245514 	Mg   
atom_frac   0.8040740000000000  0.1238219999999970  0.0011160000000032 	Mg   
atom_frac   0.9290740000000000  0.9988219999999970  0.0011160000000032 	Mg   
atom_frac   0.8039329632702270  0.9987892923855433  0.0596375661374626 	Mg   
atom_frac   0.9289439256981072  0.1238231650756344  0.0596322838372779 	Mg   
atom_frac   0.8034880933122523  0.1239492464918033  0.1183336878818305 	Mg   
atom_frac   0.9280564085109730  0.9991888319424647  0.1182842338523998 	Mg   
atom_frac   0.0522757157069810  0.2493298147843453  0.1762317670706756 	Mg   
atom_frac   0.1761780243376898  0.3746122481522720  0.1759658839060876 	Mg   
atom_frac   0.0540740000000000  0.3738219999999970  0.0011160000000032 	Mg   
atom_frac   0.1790740000000000  0.2488219999999970  0.0011160000000032 	Mg   
atom_frac   0.0538210507538592  0.2488777035605022  0.0596213993024216 	Mg   
atom_frac   0.1785577720996027  0.3739816014405961  0.0596178997197989 	Mg   
atom_frac   0.0526807808144030  0.3744373740230802  0.1181982291442803 	Mg   
atom_frac   0.1775543469447906  0.2492745564048612  0.1182629812575207 	Mg   
atom_frac   0.2986579131171926  0.2487869847279815  0.1768520685136020 	Mg   
atom_frac   0.4209106856786863  0.3740733630350494  0.1763216092501280 	Mg   
atom_frac   0.3040740000000000  0.3738219999999970  0.0011160000000032 	Mg   
atom_frac   0.4290740000000000  0.2488219999999970  0.0011160000000032 	Mg   
atom_frac   0.3039647404595335  0.2487189282999323  0.0597357552980701 	Mg   
atom_frac   0.4292546429407485  0.3737388052095569  0.0597566907659539 	Mg   
atom_frac   0.3018516884486893  0.3742429978810271  0.1181958587192864 	Mg   
atom_frac   0.4285873709621426  0.2483808845572640  0.1181855442108577 	Mg   
atom_frac   0.5568645842024690  0.2458273300952531  0.1787549793241541 	Mg   
atom_frac   0.6832963812956299  0.3741340934969264  0.1763515922606837 	Mg   
atom_frac   0.5540740000000000  0.3738219999999970  0.0011160000000032 	Mg   
atom_frac   0.6790740000000000  0.2488219999999970  0.0011160000000032 	Mg   
atom_frac   0.5544011105357119  0.2486295416227133  0.0598347454116588 	Mg   
atom_frac   0.6793396715331895  0.3737368274563798  0.0597694787525181 	Mg   
atom_frac   0.5546676643181966  0.3737802900848782  0.1187510292507918 	Mg   
atom_frac   0.6788912814939185  0.2487437800615319  0.1187251860999641 	Mg   
atom_frac   0.8041806243565797  0.2484766208328981  0.1763793518397456 	Mg   
atom_frac   0.9280825154730896  0.3746390038569892  0.1762387776440368 	Mg   
atom_frac   0.8040740000000000  0.3738219999999970  0.0011160000000032 	Mg   
atom_frac   0.9290740000000000  0.2488219999999970  0.0011160000000032 	Mg   
atom_frac   0.8040847074857250  0.2487546392956441  0.0596888060850440 	Mg   
atom_frac   0.9289637678726990  0.3739155339367066  0.0595710362173510 	Mg   
atom_frac   0.8039971876977605  0.3741688454085240  0.1181923665458721 	Mg   
atom_frac   0.9282501798301511  0.2491731968540039  0.1182849269668488 	Mg   
atom_frac   0.0521873060115340  0.4999560374780958  0.1762279360379358 	Mg   
atom_frac   0.1769101431505450  0.6252568380190885  0.1763289247569644 	Mg   
atom_frac   0.0540740000000000  0.6238219999999970  0.0011160000000032 	Mg   
atom_frac   0.1790740000000000  0.4988219999999970  0.0011160000000032 	Mg   
atom_frac   0.0537489665178157  0.4990668769383997  0.0596320758335639 	Mg   
atom_frac   0.1789380398673497  0.6239850205617438  0.0596916569812037 	Mg   
atom_frac   0.0528009870653160  0.6245314455738742  0.1183145758092188 	Mg   
atom_frac   0.1775668953116025  0.4995411831411987  0.1182794798164148 	Mg   
atom_frac   0.2987044087548992  0.5000302490824300  0.1768758142367771 	Mg   
atom_frac   0.4273973040518361  0.6270320090864134  0.1772785985876589 	Mg   
atom_frac   0.3040740000000000  0.6238219999999970  0.0011160000000032 	Mg   
atom_frac   0.4290740000000000  0.4988219999999970  0.0011160000000032 	Mg   
atom_frac   0.3039290974779315  0.4990172768008632  0.0597559578463910 	Mg   
atom_frac   0.4289853459469083  0.6238848635992484  0.0597777170275766 	Mg   
atom_frac   0.3030170113021693  0.6243958682522007  0.1186493792011016 	Mg   
atom_frac   0.4284352533559971  0.4995877075815572  0.1183051964053688 	Mg   
atom_frac   0.5565435294327760  0.5024401264913433  0.1786680900503121 	Mg   
atom_frac   0.6786695771017651  0.6254421826543890  0.1763764538174723 	Mg   
atom_frac   0.5540740000000000  0.6238219999999970  0.0011160000000032 	Mg   
atom_frac   0.6790740000000000  0.4988219999999970  0.0011160000000032 	Mg   
atom_frac   0.5542032398916727  0.4987165368665368  0.0598795266566139 	Mg   
atom_frac   0.6788835961617888  0.6238066378355595  0.0597433017946968 	Mg   
atom_frac   0.5531736309292651  0.6241823010083539  0.1187938140578780 	Mg   
atom_frac   0.6785629497152310  0.4992791109456838  0.1186993826986980 	Mg   
atom_frac   0.8037212493373618  0.5003671013985663  0.1763384189388975 	Mg   
atom_frac   0.9276856156395248  0.6250674210495202  0.1762232703374364 	Mg   
atom_frac   0.8040740000000000  0.6238219999999970  0.0011160000000032 	Mg   
atom_frac   0.9290740000000000  0.4988219999999970  0.0011160000000032 	Mg   
atom_frac   0.8039621190234759  0.4989305277891917  0.0596936208219771 	Mg   
atom_frac   0.9288274972219011  0.6239613784241521  0.0596278627006740 	Mg   
atom_frac   0.8030719764229510  0.6245223917461706  0.1183209544137528 	Mg   
atom_frac   0.9280181927756341  0.4995552129624348  0.1182991435188965 	Mg   
atom_frac   0.0524276072408402  0.7497951730879521  0.1762370604721480 	Mg   
atom_frac   0.1772854411957388  0.8745433970462121  0.1762246554597733 	Mg   
atom_frac   0.0540740000000000  0.8738219999999970  0.0011160000000032 	Mg   
atom_frac   0.1790740000000000  0.7488219999999970  0.0011160000000032 	Mg   
atom_frac   0.0538420510667958  0.7489017435945591  0.0596327877115186 	Mg   
atom_frac   0.1788861541404157  0.8738846339442869  0.0596545681823966 	Mg   
atom_frac   0.0528833481869269  0.8743129822089957  0.1182803650044185 	Mg   
atom_frac   0.1778720035286434  0.7494180956938420  0.1183362788186026 	Mg   
atom_frac   0.3020362211431227  0.7499057754562739  0.1763919396780933 	Mg   
atom_frac   0.4274718399140670  0.8745808839536483  0.1763365169721129 	Mg   
atom_frac   0.3040740000000000  0.8738219999999970  0.0011160000000032 	Mg   
atom_frac   0.4290740000000000  0.7488219999999970  0.0011160000000032 	Mg   
atom_frac   0.3039205592542694  0.7488762123375058  0.0597192504406564 	Mg   
atom_frac   0.4289394500852038  0.8738598566712564  0.0597023356357639 	Mg   
atom_frac   0.3029358219880070  0.8743245071053469  0.1183774573761380 	Mg   
atom_frac   0.4280030881065149  0.7493723447078227  0.1184911018854189 	Mg   
atom_frac   0.5530028562213449  0.7499459815603393  0.1763694724383696 	Mg   
atom_frac   0.6778291076124358  0.8745601678319669  0.1762464432811595 	Mg   
atom_frac   0.5540740000000000  0.8738219999999970  0.0011160000000032 	Mg   
atom_frac   0.6790740000000000  0.7488219999999970  0.0011160000000032 	Mg   
atom_frac   0.5538920692140334  0.7487708371787402  0.0597362557393786 	Mg   
atom_frac   0.6788252000041679  0.8738289885277570  0.0596353927632215 	Mg   
atom_frac   0.5529585162724877  0.8743018721575746  0.1183691483614093 	Mg   
atom_frac   0.6779426553556819  0.7493962428188689  0.1183364251968153 	Mg   
atom_frac   0.8028188708991962  0.7498932485353514  0.1762149916419794 	Mg   
atom_frac   0.9276876353446005  0.8745175704970177  0.1762064157433052 	Mg   
atom_frac   0.8040740000000000  0.8738219999999970  0.0011160000000032 	Mg   
atom_frac   0.9290740000000000  0.7488219999999970  0.0011160000000032 	Mg   
atom_frac   0.8037889633523868  0.7488627502627798  0.0596180906066605 	Mg   
atom_frac   0.9288229817686200  0.8738512627533415  0.0596162433432357 	Mg   
atom_frac   0.8029685227971579  0.8742631438380953  0.1182778211861745 	Mg   
atom_frac   0.9279084517565690  0.7494486813274877  0.1182801599589341 	Mg   
atom_frac   0.4383986329407811  0.2862045778807770  0.2315779526445877 	Ni   
atom_frac   0.4383744920547266  0.4627701290132772  0.2313313342919109 	Ni
atom_frac   0.4584830157477214  0.3748689456594839  0.2789478694330104 	Ni
atom_frac   0.5394920509903237  0.3744347236902349  0.2292771600667134 	Ni
