lattice_vector 0.0000000000000000 16.8447999999999993 0.0000000000000000
lattice_vector 0.0000000000000000 0.0000000000000000 16.8447999999999993
lattice_vector 36.3168000000000006 0.0000000000000000 0.0000000000000000
atom 3.016466 2.085757 0.040530 O
atom 0.910866 16.824957 0.040530 O
atom 2.988556 16.838788 6.448670 O
atom 0.884666 2.097044 6.447158 O
atom 2.996640 2.095059 4.287942 O
atom 0.890390 16.833661 4.286953 O
atom 3.016099 16.823457 2.168768 O
atom 0.911291 2.085120 2.168941 O
atom 7.227666 2.085757 0.040530 O
atom 5.122066 16.824957 0.040530 O
atom 7.201869 16.838549 6.448045 O
atom 5.093738 2.096752 6.449163 O
atom 7.208222 2.094370 4.288390 O
atom 5.101851 16.834081 4.287973 O
atom 7.227453 16.823575 2.168347 O
atom 5.122924 2.085863 2.169116 O
atom 11.438866 2.085757 0.040530 O
atom 9.333266 16.824957 0.040530 O
atom 11.415260 16.836907 6.446638 O
atom 9.311405 2.089760 6.445861 O
atom 11.424712 2.084249 4.284545 O
atom 9.312865 16.833468 4.285930 O
atom 11.436406 16.819926 2.167418 O
atom 9.335196 2.083567 2.167881 O
atom 15.650066 2.085757 0.040530 O
atom 13.544466 16.824957 0.040530 O
atom 15.625571 16.836642 6.446333 O
atom 13.525960 2.091177 6.446947 O
atom 15.631481 2.094108 4.286482 O
atom 13.526152 16.831573 4.286608 O
atom 15.648484 16.821062 2.168052 O
atom 13.544828 2.082494 2.167860 O
atom 3.016466 6.296957 0.040530 O
atom 0.910866 4.191357 0.040530 O
atom 2.988670 4.201006 6.448374 O
atom 0.884387 6.306459 6.448240 O
atom 3.001653 6.306191 4.293201 O
atom 0.891100 4.200067 4.287932 O
atom 3.018971 4.191444 2.170556 O
atom 0.911649 6.296519 2.169200 O
atom 7.227666 6.296957 0.040530 O
atom 5.122066 4.191357 0.040530 O
atom 7.210489 4.176339 6.453173 O
atom 5.092931 6.307805 6.458415 O
atom 7.218701 6.317760 4.308077 O
atom 5.108032 4.199726 4.295648 O
atom 7.232224 4.193273 2.172080 O
atom 5.129164 6.297750 2.173823 O
atom 11.438866 6.296957 0.040530 O
atom 9.333266 4.191357 0.040530 O
atom 11.427504 4.161799 6.433198 O
atom 9.356452 6.302592 6.387496 O
atom 11.436754 6.323652 4.308485 O
atom 9.324354 4.190634 4.286415 O
atom 11.442564 4.191056 2.172123 O
atom 9.341607 6.298951 2.177136 O
atom 15.650066 6.296957 0.040530 O
atom 13.544466 4.191357 0.040530 O
atom 15.625364 4.202178 6.446388 O
atom 13.521454 6.306278 6.442610 O
atom 15.631335 6.306471 4.289612 O
atom 13.527950 4.196482 4.287744 O
atom 15.650712 4.190964 2.168988 O
atom 13.544060 6.297264 2.170675 O
atom 3.016466 10.508157 0.040530 O
atom 0.910866 8.402557 0.040530 O
atom 2.975095 8.413740 6.446015 O
atom 0.884983 10.523934 6.449481 O
atom 2.994464 10.516471 4.285826 O
atom 0.890456 8.411123 4.287265 O
atom 3.019159 8.400551 2.172216 O
atom 0.907640 10.503413 2.168143 O
atom 7.227666 10.508157 0.040530 O
atom 5.122066 8.402557 0.040530 O
atom 7.168721 8.406796 6.487578 O
atom 5.069773 10.530526 6.425998 O
atom 7.218039 10.502264 4.309816 O
atom 5.112628 8.409241 4.304484 O
atom 7.236634 8.400462 2.177226 O
atom 5.125461 10.503142 2.174849 O
atom 11.438866 10.508157 0.040530 O
atom 9.333266 8.402557 0.040530 O
atom 11.463835 8.438459 6.722945 O
atom 9.343058 10.519152 6.432654 O
atom 11.432097 10.483023 4.326306 O
atom 9.345468 8.411847 4.333019 O
atom 11.440771 8.399442 2.165116 O
atom 9.337336 10.498643 2.179007 O
atom 15.650066 10.508157 0.040530 O
atom 13.544466 8.402557 0.040530 O
atom 15.636406 8.413178 6.451226 O
atom 13.521665 10.519823 6.453855 O
atom 15.629650 10.513699 4.291330 O
atom 13.510362 8.409019 4.316234 O
atom 15.645553 8.397914 2.171508 O
atom 13.541808 10.497708 2.174249 O
atom 3.016466 14.719357 0.040530 O
atom 0.910866 12.613757 0.040530 O
atom 2.983259 12.636705 6.451415 O
atom 0.883629 14.734077 6.448597 O
atom 2.995273 14.728744 4.286623 O
atom 0.890093 12.622695 4.286958 O
atom 3.015094 12.610376 2.168219 O
atom 0.908359 14.715374 2.168229 O
atom 7.227666 14.719357 0.040530 O
atom 5.122066 12.613757 0.040530 O
atom 7.203731 12.667501 6.439651 O
atom 5.091799 14.739198 6.451667 O
atom 7.207981 14.730281 4.286133 O
atom 5.101208 12.628274 4.289771 O
atom 7.229378 12.606432 2.174868 O
atom 5.121392 14.716536 2.168289 O
atom 11.438866 14.719357 0.040530 O
atom 9.333266 12.613757 0.040530 O
atom 11.419568 12.643621 6.450202 O
atom 9.310717 14.739142 6.446658 O
atom 11.419474 14.728323 4.287422 O
atom 9.322502 12.621954 4.293709 O
atom 11.439644 12.600958 2.177117 O
atom 9.332448 14.713237 2.170329 O
atom 15.650066 14.719357 0.040530 O
atom 13.544466 12.613757 0.040530 O
atom 15.625345 12.629106 6.448967 O
atom 13.521298 14.734063 6.448141 O
atom 15.629721 14.727855 4.287264 O
atom 13.524181 12.620354 4.290229 O
atom 15.646375 12.607445 2.169174 O
atom 13.541099 14.713236 2.168021 O
atom 0.887453 16.837456 6.400215 Mg
atom 2.991472 2.096038 6.400908 Mg
atom 0.910866 2.085757 0.040530 Mg
atom 3.016466 16.824957 0.040530 Mg
atom 0.908984 16.825426 2.166243 Mg
atom 3.015336 2.087304 2.167192 Mg
atom 0.895303 2.093414 4.296750 Mg
atom 2.999135 16.834008 4.297554 Mg
atom 5.094308 16.837992 6.402482 Mg
atom 7.201126 2.090378 6.405205 Mg
atom 5.122066 2.085757 0.040530 Mg
atom 7.227666 16.824957 0.040530 Mg
atom 5.119209 16.826026 2.166898 Mg
atom 7.223738 2.088067 2.169192 Mg
atom 5.105702 2.095807 4.300005 Mg
atom 7.206410 16.834252 4.297052 Mg
atom 9.306288 16.837040 6.400578 Mg
atom 11.418050 2.080223 6.399117 Mg
atom 9.333266 2.085757 0.040530 Mg
atom 11.438866 16.824957 0.040530 Mg
atom 9.326754 16.824904 2.165829 Mg
atom 11.435271 2.080312 2.164617 Mg
atom 9.312686 2.087980 4.296441 Mg
atom 11.419214 16.831094 4.294497 Mg
atom 13.522916 16.836015 6.399984 Mg
atom 15.630152 2.091518 6.399192 Mg
atom 13.544466 2.085757 0.040530 Mg
atom 15.650066 16.824957 0.040530 Mg
atom 13.541381 16.824101 2.165140 Mg
atom 15.649241 2.085206 2.165354 Mg
atom 13.529893 2.086640 4.294200 Mg
atom 15.633677 16.832285 4.296048 Mg
atom 0.889153 4.198887 6.400574 Mg
atom 2.989857 6.300367 6.407557 Mg
atom 0.910866 6.296957 0.040530 Mg
atom 3.016466 4.191357 0.040530 Mg
atom 0.911520 4.192167 2.166761 Mg
atom 3.020667 6.297722 2.171413 Mg
atom 0.899159 6.304062 4.297908 Mg
atom 3.003301 4.202160 4.299835 Mg
atom 5.092098 4.196248 6.409835 Mg
atom 7.224915 6.221798 6.609756 Mg
atom 5.122066 6.296957 0.040530 Mg
atom 7.227666 4.191357 0.040530 Mg
atom 5.122218 4.194954 2.170818 Mg
atom 7.224343 6.296554 2.175099 Mg
atom 5.127706 6.304087 4.326827 Mg
atom 7.211814 4.208899 4.313036 Mg
atom 9.314282 4.176137 6.400648 Mg
atom 11.432303 6.187502 6.401033 Mg
atom 9.333266 6.296957 0.040530 Mg
atom 11.438866 4.191357 0.040530 Mg
atom 9.327646 4.189075 2.168897 Mg
atom 11.436982 6.288343 2.161711 Mg
atom 9.306117 6.295752 4.311125 Mg
atom 11.425764 4.178488 4.287202 Mg
atom 13.537957 4.178197 6.399416 Mg
atom 15.639111 6.294692 6.400672 Mg
atom 13.544466 6.296957 0.040530 Mg
atom 15.650066 4.191357 0.040530 Mg
atom 13.545505 4.189024 2.165327 Mg
atom 15.651032 6.295701 2.165927 Mg
atom 13.535326 6.298150 4.300801 Mg
atom 15.636988 4.195923 4.293839 Mg
atom 0.890883 8.414811 6.402242 Mg
atom 2.987806 10.532775 6.401532 Mg
atom 0.910866 10.508157 0.040530 Mg
atom 3.016466 8.402557 0.040530 Mg
atom 0.911015 8.402927 2.166023 Mg
atom 3.017679 10.510389 2.170601 Mg
atom 0.896975 10.518415 4.297111 Mg
atom 2.996594 8.411897 4.295068 Mg
atom 5.031071 8.420815 6.399810 Mg
atom 7.178756 10.634849 6.643608 Mg
atom 5.122066 10.508157 0.040530 Mg
atom 7.227666 8.402557 0.040530 Mg
atom 5.119487 8.403898 2.171146 Mg
atom 7.223556 10.511457 2.177743 Mg
atom 5.122299 10.520773 4.323122 Mg
atom 7.202054 8.413674 4.291317 Mg
atom 9.290701 8.420925 6.393034 Mg
atom 11.424578 10.598107 6.428142 Mg
atom 9.333266 10.508157 0.040530 Mg
atom 11.438866 8.402557 0.040530 Mg
atom 9.324561 8.404780 2.162009 Mg
atom 11.433959 10.513989 2.165803 Mg
atom 9.299716 10.523134 4.329117 Mg
atom 11.432126 8.406510 4.221853 Mg
atom 13.596579 8.410002 6.423717 Mg
atom 15.638815 10.531685 6.403044 Mg
atom 13.544466 10.508157 0.040530 Mg
atom 15.650066 8.402557 0.040530 Mg
atom 13.549687 8.401654 2.159028 Mg
atom 15.648655 10.509491 2.167216 Mg
atom 13.531504 10.517941 4.307293 Mg
atom 15.642299 8.409507 4.295424 Mg
atom 0.888906 12.632763 6.401371 Mg
atom 2.990030 14.736312 6.401560 Mg
atom 0.910866 14.719357 0.040530 Mg
atom 3.016466 12.613757 0.040530 Mg
atom 0.909201 12.614237 2.166159 Mg
atom 3.014595 14.719890 2.166934 Mg
atom 0.894138 14.728844 4.296958 Mg
atom 3.000230 12.622588 4.297675 Mg
atom 5.083613 12.638325 6.405905 Mg
atom 7.199466 14.741181 6.401801 Mg
atom 5.122066 14.719357 0.040530 Mg
atom 7.227666 12.613757 0.040530 Mg
atom 5.120088 12.613641 2.170695 Mg
atom 7.222261 14.718338 2.170153 Mg
atom 5.104743 14.728999 4.299228 Mg
atom 7.207550 12.611318 4.315070 Mg
atom 9.306664 12.644210 6.403007 Mg
atom 11.414499 14.741687 6.400373 Mg
atom 9.333266 14.719357 0.040530 Mg
atom 11.438866 12.613757 0.040530 Mg
atom 9.325494 12.612820 2.172094 Mg
atom 11.433176 14.720218 2.166982 Mg
atom 9.310388 14.730235 4.298068 Mg
atom 11.421152 12.628089 4.299107 Mg
atom 13.532374 12.641349 6.402221 Mg
atom 15.628971 14.736532 6.400026 Mg
atom 13.544466 14.719357 0.040530 Mg
atom 15.650066 12.613757 0.040530 Mg
atom 13.542652 12.614173 2.167372 Mg
atom 15.647301 14.719903 2.165739 Mg
atom 13.526193 14.730752 4.296518 Mg
atom 15.634533 12.624993 4.296197 Mg
atom 5.5431581970849 5.23276911819739 11.3102466035861 O
atom 8.57104310542439 5.09947874345413 10.914729832253 O
atom 5.58487401875682 6.34842493630887 12.5806148307621 Ni
atom 8.78973615466185 6.81958008118382 10.5430981777391 Ni
atom 8.74851184013624 5.05470396070856 8.74158626607461 O
atom 6.2664267952515 7.63735437106254 8.3883 O
atom 7.42197414776131 6.26428303602315 8.56492752943616 Ni
atom 5.93540161876096 7.54480057909372 10.1442938121835 Ni
