lattice_vector     0.0000000000000000   16.8447999999999993    0.0000000000000000
lattice_vector     0.0000000000000000    0.0000000000000000   16.8447999999999993	
lattice_vector    36.3168000000000006    0.0000000000000000    0.0000000000000000
atom_frac   0.1790740000000000  0.1238219999999970  0.0011160000000032  	O   
atom_frac   0.0540740000000000  0.9988219999999970  0.0011160000000032  	O   
atom_frac   0.1773993028556663  0.9994489485502933  0.1775180720565581  	O   
atom_frac   0.0524829224760781  0.1244378404106438  0.1775062669439351  	O   
atom_frac   0.1777911562904391  0.1243327462829525  0.1180091591286744  	O   
atom_frac   0.0528155743874192  0.9993385474392764  0.1180187633561874  	O   
atom_frac   0.1789966389426509  0.9987063176875965  0.0596889411364605  	O   
atom_frac   0.0540275944733058  0.1237541857733091  0.0596924817684074  	O   
atom_frac   0.4290740000000000  0.1238219999999970  0.0011160000000032  	O   
atom_frac   0.3040740000000000  0.9988219999999970  0.0011160000000032  	O   
atom_frac   0.4274411689873256  0.9994138476287098  0.1775406934017369  	O   
atom_frac   0.3020515056985548  0.1242879132341966  0.1774962558002347  	O   
atom_frac   0.4281097832497953  0.1238817060246279  0.1180850816517657  	O   
atom_frac   0.3027870106938593  0.9993228777615875  0.1180142800112044  	O   
atom_frac   0.4290010823877279  0.9986641335282767  0.0596816458084780  	O   
atom_frac   0.3041472787589198  0.1238392967525051  0.0597170039791122  	O   
atom_frac   0.6790740000000000  0.1238219999999970  0.0011160000000032  	O   
atom_frac   0.5540740000000000  0.9988219999999970  0.0011160000000032  	O   
atom_frac   0.6777702729997388  0.9994354950024493  0.1775570478510266  	O   
atom_frac   0.5531162347542856  0.1232767979004555  0.1776468652191853  	O   
atom_frac   0.6781324097498163  0.1240620763708117  0.1180977649561669  	O   
atom_frac   0.5529699580463856  0.9992297788784876  0.1180369276684717  	O   
atom_frac   0.6790060575863812  0.9986748271009650  0.0596823093071228  	O   
atom_frac   0.5541378434223506  0.1237974485481435  0.0597568397947643  	O   
atom_frac   0.9290740000000000  0.1238219999999970  0.0011160000000032  	O   
atom_frac   0.8040740000000000  0.9988219999999970  0.0011160000000032  	O   
atom_frac   0.9275873370289858  0.9994965759015051  0.1775052381350903  	O   
atom_frac   0.8029627011902294  0.1241477816570241  0.1775281434315674  	O   
atom_frac   0.9279062057022971  0.1242938570805855  0.1180261815242481  	O   
atom_frac   0.8029018386233931  0.9993013335983613  0.1180111056867073  	O   
atom_frac   0.9289510408271646  0.9986433542876003  0.0596887834458580  	O   
atom_frac   0.8041074182861144  0.1237612556271374  0.0597175022207146  	O   
atom_frac   0.1790740000000000  0.3738219999999970  0.0011160000000032  	O   
atom_frac   0.0540740000000000  0.2488219999999970  0.0011160000000032  	O   
atom_frac   0.1770369737646361  0.2493145824116743  0.1774966099237043  	O   
atom_frac   0.0523799771232651  0.3745334054086855  0.1775967645435589  	O   
atom_frac   0.1774932340620148  0.3746309700344954  0.1180439279493732  	O   
atom_frac   0.0528442364693062  0.2493543008928150  0.1180232603926421  	O   
atom_frac   0.1791152152210157  0.2488734811709898  0.0596867275980863  	O   
atom_frac   0.0540980260209816  0.3738632237688004  0.0596818875751635  	O   
atom_frac   0.4290740000000000  0.3738219999999970  0.0011160000000032  	O   
atom_frac   0.3040740000000000  0.2488219999999970  0.0011160000000032  	O   
atom_frac   0.4273766740494209  0.2467222111325545  0.1769198637316536  	O   
atom_frac   0.3004298894133869  0.3738637860846867  0.1768388638024565  	O   
atom_frac   0.4294083524657967  0.3745382630158297  0.1201028994623009  	O   
atom_frac   0.3028179116424266  0.2492654216765555  0.1180136455522275  	O   
atom_frac   0.4295366512515605  0.2489485627694573  0.0599998670499085  	O   
atom_frac   0.3046127861897352  0.3738387914979155  0.0600080194590806  	O   
atom_frac   0.6790740000000000  0.3738219999999970  0.0011160000000032  	O   
atom_frac   0.5540740000000000  0.2488219999999970  0.0011160000000032  	O   
atom_frac   0.6788330197185088  0.2485009675703944  0.1776914106507126  	O   
atom_frac   0.5575502236529258  0.3703595516830329  0.1797339229294387  	O   
atom_frac   0.6780506736401496  0.3740326597327243  0.1185706949204992  	O   
atom_frac   0.5535666617628431  0.2493014326431383  0.1185946601150830  	O   
atom_frac   0.6790750917034108  0.2487184380277315  0.0598005390748688  	O   
atom_frac   0.5540799487403240  0.3737089359383999  0.0600968225105625  	O   
atom_frac   0.9290740000000000  0.3738219999999970  0.0011160000000032  	O   
atom_frac   0.8040740000000000  0.2488219999999970  0.0011160000000032  	O   
atom_frac   0.9277466775512913  0.2493366559106014  0.1775718270869243  	O   
atom_frac   0.8039814612225969  0.3742543845925141  0.1776541954981792  	O   
atom_frac   0.9281302896137339  0.3743239598520261  0.1181233515482747  	O   
atom_frac   0.8031992228485152  0.2492819594006374  0.1181276850358980  	O   
atom_frac   0.9291123912985230  0.2487989051191628  0.0597239637627625  	O   
atom_frac   0.8039996213579658  0.3736242426351464  0.0597832340719807  	O   
atom_frac   0.1790740000000000  0.6238219999999970  0.0011160000000032  	O   
atom_frac   0.0540740000000000  0.4988219999999970  0.0011160000000032  	O   
atom_frac   0.1765899431478979  0.4998306804457578  0.1775762961976736  	O   
atom_frac   0.0524030839599436  0.6248982042070351  0.1776220158398478  	O   
atom_frac   0.1778781427903172  0.6243419232426755  0.1180779367305887  	O   
atom_frac   0.0527034017963784  0.4995224923858250  0.1180782415918403  	O   
atom_frac   0.1793108774525201  0.4987705853592318  0.0598141695474082  	O   
atom_frac   0.0540380376754483  0.6236603100853693  0.0597055539013400  	O   
atom_frac   0.4290740000000000  0.6238219999999970  0.0011160000000032  	O   
atom_frac   0.3040740000000000  0.4988219999999970  0.0011160000000032  	O   
atom_frac   0.4238507725058768  0.5043263598347392  0.1793302569051332  	O   
atom_frac   0.3017886945193913  0.6254924533092249  0.1775759466371826  	O   
atom_frac   0.4281319096168842  0.6239506908573478  0.1185072915787347  	O   
atom_frac   0.3036140438646798  0.4992642866716785  0.1185767009151438  	O   
atom_frac   0.4293199919276449  0.4983315235501961  0.0600625597065449  	O   
atom_frac   0.3042496163859147  0.6234988179729637  0.0598627810052103  	O   
atom_frac   0.6790740000000000  0.6238219999999970  0.0011160000000032  	O   
atom_frac   0.5540740000000000  0.4988219999999970  0.0011160000000032  	O   
atom_frac   0.6800379088973922  0.4999305264327502  0.1771492511023544  	O   
atom_frac   0.5533876566282385  0.6264348174950550  0.1770670273685907  	O   
atom_frac   0.6781333212671770  0.6243927554375069  0.1181172880378830  	O   
atom_frac   0.5529365231467446  0.4980293119820546  0.1198497320356880  	O   
atom_frac   0.6787649744915643  0.4983914664360418  0.0599662327710789  	O   
atom_frac   0.5540319176112916  0.6230311697148017  0.0599999999975207  	O   
atom_frac   0.9290740000000000  0.6238219999999970  0.0011160000000032  	O   
atom_frac   0.8040740000000000  0.4988219999999970  0.0011160000000032  	O   
atom_frac   0.9276456012105049  0.4997902112903499  0.1775877078034065  	O   
atom_frac   0.8028754849010036  0.6252407374709961  0.1775541143394691  	O   
atom_frac   0.9278888356668709  0.6244011475957071  0.1180520386687055  	O   
atom_frac   0.8033167348318820  0.4992405304711315  0.1181309860986127  	O   
atom_frac   0.9290050825106527  0.4986577598797338  0.0597086068237461  	O   
atom_frac   0.8039250024422395  0.6235572090679240  0.0596977209023884  	O   
atom_frac   0.1790740000000000  0.8738219999999970  0.0011160000000032  	O   
atom_frac   0.0540740000000000  0.7488219999999970  0.0011160000000032  	O   
atom_frac   0.1772772027237864  0.7499999999702752  0.1776496821176043  	O   
atom_frac   0.0524582123818956  0.8746711385016993  0.1775622803561507  	O   
atom_frac   0.1778116417619822  0.8743502804062988  0.1180222887236835  	O   
atom_frac   0.0528532605976582  0.7493652430987826  0.1180454473184380  	O   
atom_frac   0.1790213817659681  0.7486043333053936  0.0597127501349108  	O   
atom_frac   0.0539371134230450  0.8736102497924521  0.0597047829873088  	O   
atom_frac   0.4290740000000000  0.8738219999999970  0.0011160000000032  	O   
atom_frac   0.3040740000000000  0.7488219999999970  0.0011160000000032  	O   
atom_frac   0.4274771814614184  0.7505567480854489  0.1775004795771139  	O   
atom_frac   0.3024192606705313  0.8746640726295152  0.1775653162226157  	O   
atom_frac   0.4277955124000881  0.8744001896485902  0.1180291109348497  	O   
atom_frac   0.3028982158113779  0.7493653966769951  0.1180797590597181  	O   
atom_frac   0.4290296424382852  0.7484270883659838  0.0597736093190295  	O   
atom_frac   0.3039848376682321  0.8735843846141809  0.0596965861185275  	O   
atom_frac   0.6790740000000000  0.8738219999999970  0.0011160000000032  	O   
atom_frac   0.5540740000000000  0.7488219999999970  0.0011160000000032  	O   
atom_frac   0.6777686031037260  0.7501647439129427  0.1775152605529757  	O   
atom_frac   0.5525874466945323  0.8747563134545483  0.1775802873096251  	O   
atom_frac   0.6778522707358224  0.8743587222089303  0.1180245205254247  	O   
atom_frac   0.5528139649005638  0.7496609813222365  0.1180027121493749  	O   
atom_frac   0.6788840919773995  0.7485403290707547  0.0596987806824327  	O   
atom_frac   0.5539313486395716  0.8736425624842914  0.0596690430810943  	O   
atom_frac   0.9290740000000000  0.8738219999999970  0.0011160000000032  	O   
atom_frac   0.8040740000000000  0.7488219999999970  0.0011160000000032  	O   
atom_frac   0.9276427507397598  0.7498534014166819  0.1775403957110152  	O   
atom_frac   0.8026543031920833  0.8746674927017499  0.1775024759075389  	O   
atom_frac   0.9278442364724152  0.8743543009920989  0.1180232603399518  	O   
atom_frac   0.8028788653771842  0.7493865834286311  0.1180326233458839  	O   
atom_frac   0.9289251816570309  0.7485939821702903  0.0597048304316085  	O   
atom_frac   0.8039072973345224  0.8735882227787387  0.0596836181858032  	O   
atom_frac   0.0524735559041684  0.9994868631238534  0.1761956484617929  	Mg  
atom_frac   0.1771925158523358  0.1242561679986517  0.1762020332069775  	Mg  
atom_frac   0.0540740000000000  0.1238219999999970  0.0011160000000032  	Mg  
atom_frac   0.1790740000000000  0.9988219999999970  0.0011160000000032  	Mg  
atom_frac   0.0538220688509669  0.9988744281059176  0.0596219815294018  	Mg  
atom_frac   0.1788646042279730  0.1239307807070024  0.0596445428875399  	Mg  
atom_frac   0.0529227397936502  0.1243050096033243  0.1182754598823967  	Mg  
atom_frac   0.1778185996598083  0.9993504193813390  0.1182765497599789  	Mg  
atom_frac   0.3022642724644324  0.9994610727627901  0.1762078700925502  	Mg  
atom_frac   0.4271222095896482  0.1235465492965922  0.1763384832598164  	Mg
atom_frac   0.3040740000000000  0.1238219999999970  0.0011160000000032  	Mg  
atom_frac   0.4290740000000000  0.9988219999999970  0.0011160000000032  	Mg  
atom_frac   0.3038346363099997  0.9988929496665223  0.0596307572914453  	Mg  
atom_frac   0.4289441159003534  0.1238578616644266  0.0597315350889105  	Mg  
atom_frac   0.3028886872933952  0.1242757822051321  0.1182956809819772  	Mg  
atom_frac   0.4278835955690700  0.9992619709015230  0.1182854385458410  	Mg  
atom_frac   0.5527467619295643  0.9992852555300201  0.1762858614346995  	Mg  
atom_frac   0.6785240921496469  0.1236778919747381  0.1763060878366098  	Mg  
atom_frac   0.5540740000000000  0.1238219999999970  0.0011160000000032  	Mg  
atom_frac   0.6790740000000000  0.9988219999999970  0.0011160000000032  	Mg  
atom_frac   0.5538645804780228  0.9988269052449750  0.0596197914009752  	Mg  
atom_frac   0.6789826218614099  0.1238396041122776  0.0596660234567306  	Mg  
atom_frac   0.5531533522734985  0.1237440319965222  0.1183082373629335  	Mg  
atom_frac   0.6780804830221032  0.9992264509064552  0.1182873558435916  	Mg  
atom_frac   0.8028053975318072  0.9993638090735677  0.1761989805257907  	Mg  
atom_frac   0.9277822157117824  0.1242665722638478  0.1762051533540455  	Mg  
atom_frac   0.8040740000000000  0.1238219999999970  0.0011160000000032  	Mg  
atom_frac   0.9290740000000000  0.9988219999999970  0.0011160000000032  	Mg  
atom_frac   0.8038604641119945  0.9988504249491499  0.0596228240514501  	Mg  
atom_frac   0.9289160051148484  0.1238684931270479  0.0596345871766802  	Mg  
atom_frac   0.8031963641377592  0.1241862253652771  0.1182752691568506  	Mg  
atom_frac   0.9279488940941364  0.9992832124575570  0.1182688535872844  	Mg  
atom_frac   0.0524475036812664  0.2493268338905330  0.1762385654965708  	Mg  
atom_frac   0.1767997283746714  0.3740359754996559  0.1763118298795287  	Mg  
atom_frac   0.0540740000000000  0.3738219999999970  0.0011160000000032  	Mg  
atom_frac   0.1790740000000000  0.2488219999999970  0.0011160000000032  	Mg  
atom_frac   0.0538923346577717  0.2489397168998234  0.0596410657627583  	Mg  
atom_frac   0.1788946867056306  0.3739096783394305  0.0597314013897950  	Mg  
atom_frac   0.0528608606700299  0.3744194592566849  0.1183340759029278  	Mg  
atom_frac   0.1777788800135648  0.2493994775211016  0.1183047573470319  	Mg  
atom_frac   0.3012018953351363  0.2480315946401846  0.1764276201063326  	Mg  
atom_frac   0.4217951334227859  0.3680598204341038  0.1797343672486292  	Mg  
atom_frac   0.3040740000000000  0.3738219999999970  0.0011160000000032  	Mg  
atom_frac   0.4290740000000000  0.2488219999999970  0.0011160000000032  	Mg  
atom_frac   0.3039642806134909  0.2488913379245800  0.0597603910967088  	Mg  
atom_frac   0.4290915483007407  0.3737704784143185  0.0599251109467730  	Mg  
atom_frac   0.3029212259774525  0.3741723079419809  0.1187239903628554  	Mg  
atom_frac   0.4281456791666127  0.2488958863051483  0.1187554237346427  	Mg  
atom_frac   0.5534501757201695  0.2450313602096025  0.1768132181838039  	Mg  
atom_frac   0.6823927286923256  0.3736481249649222  0.1766912489559272  	Mg  
atom_frac   0.5540740000000000  0.3738219999999970  0.0011160000000032  	Mg  
atom_frac   0.6790740000000000  0.2488219999999970  0.0011160000000032  	Mg  
atom_frac   0.5540948674937402  0.2488118045444636  0.0597779639388608  	Mg  
atom_frac   0.6790140341470067  0.3737585643798711  0.0597800359865516  	Mg  
atom_frac   0.5532894976269318  0.3739034375995505  0.1187281860161184  	Mg  
atom_frac   0.6784395620219565  0.2489474326943844  0.1185552567925840  	Mg  
atom_frac   0.8035530425609719  0.2486023697539147  0.1763329512764395  	Mg  
atom_frac   0.9279757813241993  0.3744539268803066  0.1763275839946893  	Mg  
atom_frac   0.8040740000000000  0.3738219999999970  0.0011160000000032  	Mg  
atom_frac   0.9290740000000000  0.2488219999999970  0.0011160000000032  	Mg  
atom_frac   0.8039865422915977  0.2488392615685550  0.0596665914205124  	Mg  
atom_frac   0.9289948099618611  0.3738792752875240  0.0596564234791796  	Mg  
atom_frac   0.8036812432106434  0.3741784605184295  0.1183191192404624  	Mg  
atom_frac   0.9281654798869409  0.2492552723801795  0.1183179278686583  	Mg  
atom_frac   0.0523240992505120  0.4997414453957377  0.1762953986248582  	Mg  
atom_frac   0.1769502639229967  0.6253361621042167  0.1763061881198090  	Mg  
atom_frac   0.0540740000000000  0.6238219999999970  0.0011160000000032  	Mg  
atom_frac   0.1790740000000000  0.4988219999999970  0.0011160000000032  	Mg  
atom_frac   0.0538359412100103  0.4989174696756644  0.0596512228937669  	Mg  
atom_frac   0.1788956066847329  0.6238853313191415  0.0596901824452731  	Mg  
atom_frac   0.0528217057228763  0.6244576430516908  0.1183300462451811  	Mg  
atom_frac   0.1775946101030842  0.4993756685145634  0.1183310351728860  	Mg  
atom_frac   0.2985971674310494  0.4999223471939674  0.1767675835515681  	Mg  
atom_frac   0.4272293588742543  0.6288997890819032  0.1765487889319768  	Mg  
atom_frac   0.3040740000000000  0.6238219999999970  0.0011160000000032  	Mg  
atom_frac   0.4290740000000000  0.4988219999999970  0.0011160000000032  	Mg  
atom_frac   0.3039882131274187  0.4988903688584931  0.0598181567574832  	Mg  
atom_frac   0.4289026909588953  0.6237907008138076  0.0598001932301314  	Mg  
atom_frac   0.3029291140591806  0.6244186998930796  0.1185533346584045  	Mg  
atom_frac   0.4282979044675562  0.4988884935401333  0.1187420347693005  	Mg  
atom_frac   0.5584455605258920  0.5046439504021341  0.1785247436090349  	Mg  
atom_frac   0.6791251119396148  0.6259894800088109  0.1763420212169646  	Mg  
atom_frac   0.5540740000000000  0.6238219999999970  0.0011160000000032  	Mg  
atom_frac   0.6790740000000000  0.4988219999999970  0.0011160000000032  	Mg  
atom_frac   0.5540032749036542  0.4986636921202212  0.0598652347519008  	Mg  
atom_frac   0.6789623782478724  0.6238418172448994  0.0597376886265301  	Mg  
atom_frac   0.5532410140773169  0.6245506154308806  0.1186184090763796  	Mg  
atom_frac   0.6786342895668485  0.4992363850472806  0.1186469386816016  	Mg  
atom_frac   0.8036234132187926  0.5001061537264964  0.1763458803475624  	Mg  
atom_frac   0.9277004386865244  0.6249610510095359  0.1762483295779458  	Mg  
atom_frac   0.8040740000000000  0.6238219999999970  0.0011160000000032  	Mg  
atom_frac   0.9290740000000000  0.4988219999999970  0.0011160000000032  	Mg  
atom_frac   0.8039786422746118  0.4988508908177023  0.0597096705251548  	Mg  
atom_frac   0.9288654737770560  0.6238709810183403  0.0596376466044077  	Mg  
atom_frac   0.8031468938569074  0.6244822251847709  0.1183098848172775  	Mg  
atom_frac   0.9280728781837183  0.4994268881737650  0.1183406786020301  	Mg  
atom_frac   0.0524307850932505  0.7498610255599925  0.1762507227425400  	Mg  
atom_frac   0.1773450812161759  0.8747382520836158  0.1762294661658526  	Mg  
atom_frac   0.0540740000000000  0.8738219999999970  0.0011160000000032  	Mg  
atom_frac   0.1790740000000000  0.7488219999999970  0.0011160000000032  	Mg  
atom_frac   0.0538241766434481  0.7488718303193754  0.0596251311560529  	Mg  
atom_frac   0.1788083344500860  0.8738789386840671  0.0596235407524451  	Mg  
atom_frac   0.0528528077490063  0.8743746375930782  0.1182928573746553  	Mg  
atom_frac   0.1778061283644670  0.7494488504244795  0.1183074449687959  	Mg  
atom_frac   0.3018565170331937  0.7502677256472654  0.1762823683105823  	Mg  
atom_frac   0.4274819656234546  0.8748569654717997  0.1762433922321769  	Mg  
atom_frac   0.3040740000000000  0.8738219999999970  0.0011160000000032  	Mg  
atom_frac   0.4290740000000000  0.7488219999999970  0.0011160000000032  	Mg  
atom_frac   0.3038137745770120  0.7488584139529566  0.0596766689815255  	Mg  
atom_frac   0.4288058302436363  0.8739017412411103  0.0596255079170697  	Mg  
atom_frac   0.3027949241424233  0.8744421233326751  0.1183075184260201  	Mg  
atom_frac   0.4279631170540563  0.7498038763219805  0.1182601754836364  	Mg  
atom_frac   0.5531828648321011  0.7504169049745680  0.1762680264447294  	Mg  
atom_frac   0.6777782166826493  0.8747652422735537  0.1762270980714700  	Mg  
atom_frac   0.5540740000000000  0.8738219999999970  0.0011160000000032  	Mg  
atom_frac   0.6790740000000000  0.7488219999999970  0.0011160000000032  	Mg  
atom_frac   0.5538856258658968  0.7488822660467822  0.0597021761798948  	Mg  
atom_frac   0.6788132947750931  0.8738746982400725  0.0596176076873324  	Mg  
atom_frac   0.5529403460794101  0.8744972413958216  0.1182952776453436  	Mg  
atom_frac   0.6779888024503975  0.7495472401295873  0.1182943227855642  	Mg  
atom_frac   0.8029042523284702  0.7500699164893992  0.1762124560400455  	Mg  
atom_frac   0.9276459792217761  0.8746815117802194  0.1761970502200905  	Mg  
atom_frac   0.8040740000000000  0.8738219999999970  0.0011160000000032  	Mg  
atom_frac   0.9290740000000000  0.7488219999999970  0.0011160000000032  	Mg  
atom_frac   0.8038327843098690  0.7488719496136785  0.0596284604156122  	Mg  
atom_frac   0.9288076427882312  0.8738582060455791  0.0596152429389861  	Mg  
atom_frac   0.8029452728925242  0.8743617158336467  0.1182717580995661  	Mg  
atom_frac   0.9279357836572441  0.7494579936522737  0.1182939207721268  	Mg  
atom_frac   0.4267404307851191  0.3752016957189686  0.2676295903218797  	Ni  
atom_frac   0.5204153682499978  0.4688719159259227  0.2812110933083565  	Ni  
atom_frac   0.4417146237206647  0.4847139873554339  0.2304927384265112  	Ni  
atom_frac   0.5370015013827613  0.3892662453723062  0.2308081901747330   	Ni  
