lattice_vector     0.0000000000000000   16.8447999999999993    0.0000000000000000
lattice_vector     0.0000000000000000    0.0000000000000000   16.8447999999999993
lattice_vector    36.3168000000000006    0.0000000000000000    0.0000000000000000
atom      3.016466         2.085757         0.040530     O 
atom      0.910866        16.824957         0.040530     O 
atom      2.987140        16.836255         6.448985     O 
atom      0.883120         2.096324         6.448020     O 
atom      2.997057         2.095451         4.289645     O 
atom      0.890175        16.834309         4.287146     O 
atom      3.017371        16.825882         2.168807     O 
atom      0.912129         2.085834         2.168841     O 
atom      7.227666         2.085757         0.040530     O 
atom      5.122066        16.824957         0.040530     O 
atom      7.201122        16.824052         6.446424     O 
atom      5.093689         2.094823         6.444432     O 
atom      7.214729         2.103146         4.307061     O 
atom      5.103525        16.834749         4.290054     O 
atom      7.230246        16.826444         2.171064     O 
atom      5.128457         2.087390         2.173353     O 
atom     11.438866         2.085757         0.040530     O 
atom      9.333266        16.824957         0.040530     O 
atom     11.419414        16.830663         6.447380     O 
atom      9.318595         2.071393         6.444334     O 
atom     11.423750         2.092307         4.291122     O 
atom      9.314641        16.831666         4.287688     O 
atom     11.439711        16.824588         2.168815     O 
atom      9.334974         2.087285         2.174184     O 
atom     15.650066         2.085757         0.040530     O 
atom     13.544466        16.824957         0.040530     O 
atom     15.625135        16.835500         6.447056     O 
atom     13.525955         2.092900         6.447765     O 
atom     15.630512         2.094386         4.288235     O 
atom     13.524968        16.833384         4.287012     O 
atom     15.650041        16.823728         2.169025     O 
atom     13.545144         2.085245         2.168743     O 
atom      3.016466         6.296957         0.040530     O 
atom      0.910866         4.191357         0.040530     O 
atom      2.974231         4.203528         6.445680     O 
atom      0.882354         6.313754         6.450068     O 
atom      2.989572         6.309287         4.287811     O 
atom      0.889455         4.200573         4.287148     O 
atom      3.022030         4.190619         2.173565     O 
atom      0.909172         6.294731         2.168686     O 
atom      7.227666         6.296957         0.040530     O 
atom      5.122066         4.191357         0.040530     O 
atom      7.212909         4.158602         6.528119     O 
atom      5.064059         6.320445         6.423255     O 
atom      7.225890         6.285776         4.348408     O 
atom      5.118276         4.200539         4.311801     O 
atom      7.235778         4.191322         2.178531     O 
atom      5.128696         6.292680         2.179090     O 
atom     11.438866         6.296957         0.040530     O 
atom      9.333266         4.191357         0.040530     O 
atom     11.437533         4.192839         6.450424     O 
atom      9.361790         6.289817         6.499679     O 
atom     11.416362         6.302218         4.304384     O 
atom      9.315162         4.198284         4.330379     O 
atom     11.438171         4.188573         2.175062     O 
atom      9.333862         6.287461         2.179243     O 
atom     15.650066         6.296957         0.040530     O 
atom     13.544466         4.191357         0.040530     O 
atom     15.626499         4.203806         6.447873     O 
atom     13.533381         6.310955         6.447775     O 
atom     15.630791         6.306531         4.288842     O 
atom     13.529370         4.199690         4.290781     O 
atom     15.649836         4.190281         2.168854     O 
atom     13.542931         6.293311         2.171101     O 
atom      3.016466        10.508157         0.040530     O 
atom      0.910866         8.402557         0.040530     O 
atom      2.980361         8.427281         6.450197     O 
atom      0.880408        10.526548         6.451930     O 
atom      2.990417        10.522627         4.288789     O 
atom      0.885175         8.416242         4.288636     O 
atom      3.014382         8.399957         2.168612     O 
atom      0.908598        10.506994         2.168600     O 
atom      7.227666        10.508157         0.040530     O 
atom      5.122066         8.402557         0.040530     O 
atom      7.186762         8.445627         6.419814     O 
atom      5.087070        10.533047         6.449652     O 
atom      7.204424        10.524843         4.286909     O 
atom      5.097063         8.416049         4.287738     O 
atom      7.229010         8.391246         2.178831     O 
atom      5.120950        10.505564         2.168716     O 
atom     11.438866        10.508157         0.040530     O 
atom      9.333266         8.402557         0.040530     O 
atom     11.419572         8.421772         6.441003     O 
atom      9.307860        10.540319         6.446667     O 
atom     11.416705        10.518197         4.288703     O 
atom      9.315910         8.399658         4.313772     O 
atom     11.435735         8.394836         2.172861     O 
atom      9.330472        10.499442         2.171950     O 
atom     15.650066        10.508157         0.040530     O 
atom     13.544466         8.402557         0.040530     O 
atom     15.624734         8.418557         6.449221     O 
atom     13.521129        10.525798         6.447768     O 
atom     15.627213        10.519874         4.288422     O 
atom     13.524958         8.410520         4.288983     O 
atom     15.647578         8.399573         2.168788     O 
atom     13.541313        10.503734         2.168748     O 
atom      3.016466        14.719357         0.040530     O 
atom      0.910866        12.613757         0.040530     O 
atom      2.985561        12.631151         6.452113     O 
atom      0.882919        14.733501         6.448875     O 
atom      2.993915        14.730604         4.287605     O 
atom      0.886801        12.625406         4.288141     O 
atom      3.014841        12.613493         2.168491     O 
atom      0.910502        14.718686         2.168514     O 
atom      7.227666        14.719357         0.040530     O 
atom      5.122066        12.613757         0.040530     O 
atom      7.198903        12.631588         6.450852     O 
atom      5.092783        14.731578         6.448441     O 
atom      7.207492        14.728474         4.286508     O 
atom      5.096855        12.626701         4.288702     O 
atom      7.226759        12.612554         2.167839     O 
atom      5.122158        14.719600         2.168933     O 
atom     11.438866        14.719357         0.040530     O 
atom      9.333266        12.613757         0.040530     O 
atom     11.414939        12.629250         6.448692     O 
atom      9.308988        14.730998         6.446794     O 
atom     11.418435        14.727980         4.287397     O 
atom      9.312491        12.623954         4.286595     O 
atom     11.436402        12.609844         2.167881     O 
atom      9.332897        14.718743         2.168538     O 
atom     15.650066        14.719357         0.040530     O 
atom     13.544466        12.613757         0.040530     O 
atom     15.624081        12.629009         6.449300     O 
atom     13.520336        14.731265         6.446885     O 
atom     15.629106        14.729119         4.286577     O 
atom     13.523635        12.623103         4.286507     O 
atom     15.647995        12.611941         2.168729     O 
atom     13.542976        14.717020         2.168337     O 
atom      0.882658        16.834719         6.400953     Mg
atom      2.981989         2.089334         6.406352     Mg
atom      0.910866         2.085757         0.040530     Mg
atom      3.016466        16.824957         0.040530     Mg
atom      0.907776        16.826554         2.165997     Mg
atom      3.014494         2.086947         2.168298     Mg
atom      0.891041         2.094425         4.298667     Mg
atom      2.995128        16.834457         4.297764     Mg
atom      5.086229        16.829244         6.405045     Mg
atom      7.200573         2.028541         6.422989     Mg
atom      5.122066         2.085757         0.040530     Mg
atom      7.227666        16.824957         0.040530     Mg
atom      5.118745        16.826407         2.168319     Mg
atom      7.226732         2.085733         2.168792     Mg
atom      5.103416         2.094556         4.308017     Mg
atom      7.208396        16.826935         4.296203     Mg
atom      9.318596        16.821743         6.402621     Mg
atom     11.438164         2.073796         6.405273     Mg
atom      9.333266         2.085757         0.040530     Mg
atom     11.438866        16.824957         0.040530     Mg
atom      9.332279        16.824859         2.166541     Mg
atom     11.439197         2.085622         2.167678     Mg
atom      9.321641         2.083403         4.303394     Mg
atom     11.424029        16.829938         4.295086     Mg
atom     13.525762        16.831160         6.399559     Mg
atom     15.628118         2.094451         6.401330     Mg
atom     13.544466         2.085757         0.040530     Mg
atom     15.650066        16.824957         0.040530     Mg
atom     13.542422        16.825593         2.165889     Mg
atom     15.648357         2.086920         2.166205     Mg
atom     13.531036         2.092370         4.296045     Mg
atom     15.631755        16.832852         4.296441     Mg
atom      0.881375         4.204094         6.403480     Mg
atom      2.975879         6.320578         6.405796     Mg
atom      0.910866         6.296957         0.040530     Mg
atom      3.016466         4.191357         0.040530     Mg
atom      0.907014         4.192683         2.166863     Mg
atom      3.009944         6.299354         2.168836     Mg
atom      0.888146         6.308789         4.298948     Mg
atom      2.991118         4.201458         4.299392     Mg
atom      5.025624         4.199637         6.433866     Mg
atom      7.103018         6.400914         6.462336     Mg
atom      5.122066         6.296957         0.040530     Mg
atom      7.227666         4.191357         0.040530     Mg
atom      5.119697         4.192319         2.170654     Mg
atom      7.225885         6.298201         2.171200     Mg
atom      5.094484         6.308388         4.306351     Mg
atom      7.214279         4.197427         4.293417     Mg
atom      9.377491         4.123688         6.445159     Mg
atom     11.486265         6.315954         6.416179     Mg
atom      9.333266         6.296957         0.040530     Mg
atom     11.438866         4.191357         0.040530     Mg
atom      9.335580         4.189581         2.169067     Mg
atom     11.438355         6.297876         2.169230     Mg
atom      9.318921         6.305663         4.298469     Mg
atom     11.431484         4.196065         4.305530     Mg
atom     13.535303         4.194021         6.404417     Mg
atom     15.629484         6.312544         6.403334     Mg
atom     13.544466         6.296957         0.040530     Mg
atom     15.650066         4.191357         0.040530     Mg
atom     13.544160         4.191666         2.167248     Mg
atom     15.647905         6.298326         2.166477     Mg
atom     13.534255         6.306593         4.296128     Mg
atom     15.633962         4.199938         4.297748     Mg
atom      0.881166         8.422386         6.404395     Mg
atom      2.981735        10.530801         6.404394     Mg
atom      0.910866        10.508157         0.040530     Mg
atom      3.016466         8.402557         0.040530     Mg
atom      0.904349         8.405122         2.166752     Mg
atom      3.009535        10.511162         2.166599     Mg
atom      0.887840        10.520689         4.298552     Mg
atom      2.991366         8.415642         4.298034     Mg
atom      5.070702         8.443090         6.404584     Mg
atom      7.190921        10.535168         6.405288     Mg
atom      5.122066        10.508157         0.040530     Mg
atom      7.227666         8.402557         0.040530     Mg
atom      5.116202         8.405165         2.170913     Mg
atom      7.222315        10.510068         2.169334     Mg
atom      5.098370        10.522202         4.297556     Mg
atom      7.210659         8.418976         4.309267     Mg
atom      9.313588         8.489615         6.468264     Mg
atom     11.421855        10.531052         6.403219     Mg
atom      9.333266        10.508157         0.040530     Mg
atom     11.438866         8.402557         0.040530     Mg
atom      9.331650         8.403481         2.171461     Mg
atom     11.434874        10.508793         2.167939     Mg
atom      9.312421        10.519736         4.301408     Mg
atom     11.417997         8.413822         4.309246     Mg
atom     13.527939         8.426687         6.403377     Mg
atom     15.625126        10.525833         6.401404     Mg
atom     13.544466        10.508157         0.040530     Mg
atom     15.650066         8.402557         0.040530     Mg
atom     13.540616         8.403873         2.167848     Mg
atom     15.645036        10.509638         2.166176     Mg
atom     13.524189        10.519150         4.296719     Mg
atom     15.630554         8.414774         4.298487     Mg
atom      0.882482        12.629859         6.402596     Mg
atom      2.986712        14.731494         6.402242     Mg
atom      0.910866        14.719357         0.040530     Mg
atom      3.016466        12.613757         0.040530     Mg
atom      0.905510        12.616236         2.166041     Mg
atom      3.012299        14.721380         2.166186     Mg
atom      0.889752        14.729361         4.297610     Mg
atom      2.993359        12.625887         4.298181     Mg
atom      5.090434        12.630809         6.403727     Mg
atom      7.198915        14.728295         6.402009     Mg
atom      5.122066        14.719357         0.040530     Mg
atom      7.227666        12.613757         0.040530     Mg
atom      5.117085        12.616630         2.166601     Mg
atom      7.224257        14.720074         2.165838     Mg
atom      5.099938        14.728257         4.298091     Mg
atom      7.205444        12.625304         4.297746     Mg
atom      9.307408        12.631138         6.401195     Mg
atom     11.417167        14.728596         6.400428     Mg
atom      9.333266        14.719357         0.040530     Mg
atom     11.438866        12.613757         0.040530     Mg
atom      9.328866        12.614808         2.167062     Mg
atom     11.435694        14.719607         2.165530     Mg
atom      9.314425        14.726595         4.296174     Mg
atom     11.418729        12.623742         4.297642     Mg
atom     13.521257        12.629664         6.400314     Mg
atom     15.625166        14.731404         6.400518     Mg
atom     13.544466        14.719357         0.040530     Mg
atom     15.650066        12.613757         0.040530     Mg
atom     13.540166        12.614740         2.165686     Mg
atom     15.646680        14.720428         2.165719     Mg
atom     13.525999        14.727265         4.296200     Mg
atom     15.629409        12.624256         4.297369     Mg
atom      9.011368         7.847979        10.057557     Ni
atom      9.033087         6.408298         8.356747     Ni
atom      7.156510         4.474853         8.384617     Ni
atom      7.630138         6.069537        10.121569     Ni
atom      6.687419         4.605363        10.060417     O 