lattice_vector     0.0000000000000000   16.8447999999999993    0.0000000000000000
lattice_vector     0.0000000000000000    0.0000000000000000   16.8447999999999993
lattice_vector    36.3168000000000006    0.0000000000000000    0.0000000000000000
atom     3.016466         2.085757       0.040530    O 
atom     0.910866        16.824957       0.040530    O 
atom     2.978689        16.831885       6.444363    O 
atom     0.877177         2.093768       6.446055    O 
atom     2.996251         2.093399       4.286627    O 
atom     0.889981        16.833638       4.285107    O 
atom     3.017385        16.826173       2.166497    O 
atom     0.912527         2.087256       2.166236    O 
atom     7.227666         2.085757       0.040530    O 
atom     5.122066        16.824957       0.040530    O 
atom     7.206186        16.813686       6.440914    O 
atom     5.092722         2.047540       6.434319    O 
atom     7.218244         2.093839       4.302115    O 
atom     5.103959        16.829321       4.284613    O 
atom     7.228938        16.825321       2.168734    O 
atom     5.129525         2.088352       2.176024    O 
atom    11.438866         2.085757       0.040530    O 
atom     9.333266        16.824957       0.040530    O 
atom    11.430844        16.821917       6.441544    O 
atom     9.330922         2.045249       6.439151    O 
atom    11.430890         2.087073       4.290119    O 
atom     9.318987        16.827039       4.284620    O 
atom    11.439139        16.822912       2.166164    O 
atom     9.336057         2.086413       2.174181    O 
atom    15.650066         2.085757       0.040530    O 
atom    13.544466        16.824957       0.040530    O 
atom    15.624845        16.832666       6.445704    O 
atom    13.535182         2.081735       6.442914    O 
atom    15.632177         2.092647       4.284871    O 
atom    13.528541        16.829616       4.283356    O 
atom    15.650406        16.823796       2.165850    O 
atom    13.546239         2.085138       2.165726    O 
atom     3.016466         6.296957       0.040530    O 
atom     0.910866         4.191357       0.040530    O 
atom     2.955027         4.190177       6.434207    O 
atom     0.869142         6.308332       6.445967    O 
atom     3.008605         6.303971       4.306007    O 
atom     0.889368         4.200497       4.285511    O 
atom     3.025535         4.192476       2.177929    O 
atom     0.917678         6.297497       2.171343    O 
atom     7.227666         6.296957       0.040530    O 
atom     5.122066         4.191357       0.040530    O 
atom     7.219206         4.146781       6.507079    O 
atom     5.055011         6.300039       6.517293    O 
atom     7.226320         6.293511       4.350232    O 
atom     5.128233         4.207889       4.337797    O 
atom     7.235159         4.192837       2.181707    O 
atom     5.132322         6.294776       2.182607    O 
atom    11.438866         6.296957       0.040530    O 
atom     9.333266         4.191357       0.040530    O 
atom    11.469619         4.187708       6.440227    O 
atom     9.366919         6.307108       6.521158    O 
atom    11.424399         6.300904       4.304675    O 
atom     9.321855         4.203158       4.333261    O 
atom    11.438366         4.189325       2.173238    O 
atom     9.332105         6.290265       2.181249    O 
atom    15.650066         6.296957       0.040530    O 
atom    13.544466         4.191357       0.040530    O 
atom    15.624793         4.198847       6.446264    O 
atom    13.546204         6.310619       6.446205    O 
atom    15.632603         6.305969       4.285791    O 
atom    13.533772         4.196385       4.285316    O 
atom    15.652926         4.193035       2.165284    O 
atom    13.542966         6.293512       2.169316    O 
atom     3.016466        10.508157       0.040530    O 
atom     0.910866         8.402557       0.040530    O 
atom     2.950717         8.422818       6.437714    O 
atom     0.877334        10.532558       6.441629    O 
atom     2.996475        10.517016       4.287999    O 
atom     0.889311         8.411283       4.285582    O 
atom     3.024349         8.398428       2.178157    O 
atom     0.911751        10.505224       2.167862    O 
atom     7.227666        10.508157       0.040530    O 
atom     5.122066         8.402557       0.040530    O 
atom     7.208344         8.461239       6.510719    O 
atom     5.088477        10.562877       6.438048    O 
atom     7.212953        10.509181       4.304222    O 
atom     5.126360         8.390389       4.344478    O 
atom     7.228847         8.389935       2.181724    O 
atom     5.124549        10.496907       2.178295    O 
atom    11.438866        10.508157       0.040530    O 
atom     9.333266         8.402557       0.040530    O 
atom    11.467689         8.423287       6.438903    O 
atom     9.323691        10.560438       6.435324    O 
atom    11.423208        10.517589       4.289397    O 
atom     9.313270         8.387387       4.339603    O 
atom    11.435037         8.393385       2.174362    O 
atom     9.331967        10.495050       2.178162    O 
atom    15.650066        10.508157       0.040530    O 
atom    13.544466         8.402557       0.040530    O 
atom    15.627218         8.422848       6.446408    O 
atom    13.525410        10.534754       6.446181    O 
atom    15.629408        10.518109       4.284980    O 
atom    13.530385         8.410973       4.285804    O 
atom    15.649953         8.400118       2.166309    O 
atom    13.541655        10.503799       2.167341    O 
atom     3.016466        14.719357       0.040530    O 
atom     0.910866        12.613757       0.040530    O 
atom     2.980279        12.635655       6.440588    O 
atom     0.881167        14.731453       6.444529    O 
atom     2.994971        14.728431       4.285311    O 
atom     0.889268        12.623779       4.284262    O 
atom     3.015966        12.610073       2.167619    O 
atom     0.909990        14.718378       2.166786    O 
atom     7.227666        14.719357       0.040530    O 
atom     5.122066        12.613757       0.040530    O 
atom     7.202433        12.642548       6.446043    O 
atom     5.090636        14.731462       6.447321    O 
atom     7.206977        14.726899       4.285310    O 
atom     5.102481        12.625381       4.285227    O 
atom     7.225195        12.605285       2.169746    O 
atom     5.121815        14.717089       2.166235    O 
atom    11.438866        14.719357       0.040530    O 
atom     9.333266        12.613757       0.040530    O 
atom    11.420443        12.637809       6.444775    O 
atom     9.312020        14.731450       6.446223    O 
atom    11.420423        14.726321       4.284899    O 
atom     9.312772        12.624095       4.284879    O 
atom    11.435921        12.608742       2.167259    O 
atom     9.330455        14.714616       2.167068    O 
atom    15.650066        14.719357       0.040530    O 
atom    13.544466        12.613757       0.040530    O 
atom    15.624751        12.631546       6.444448    O 
atom    13.523157        14.731121       6.445835    O 
atom    15.629299        14.728062       4.285034    O 
atom    13.523789        12.623036       4.284984    O 
atom    15.648097        12.610707       2.166797    O 
atom    13.542236        14.715725       2.166780    O 
atom     0.878811        16.831493       6.397169    Mg
atom     2.968548         2.071835       6.400313    Mg
atom     0.910866         2.085757       0.040530    Mg
atom     3.016466        16.824957       0.040530    Mg
atom     0.907125        16.826972       2.164507    Mg
atom     3.015280         2.087645       2.169426    Mg
atom     0.890070         2.094048       4.293745    Mg
atom     2.996319        16.831885       4.293366    Mg
atom     5.087068        16.819744       6.397895    Mg
atom     7.212327         2.019528       6.399245    Mg
atom     5.122066         2.085757       0.040530    Mg
atom     7.227666        16.824957       0.040530    Mg
atom     5.118984        16.826666       2.168605    Mg
atom     7.228992         2.083524       2.169107    Mg
atom     5.103622         2.095788       4.315098    Mg
atom     7.213129        16.822155       4.291715    Mg
atom     9.326815        16.815909       6.397544    Mg
atom    11.449728         2.064128       6.402105    Mg
atom     9.333266         2.085757       0.040530    Mg
atom    11.438866        16.824957       0.040530    Mg
atom     9.332731        16.825476       2.168051    Mg
atom    11.438891         2.085857       2.168161    Mg
atom     9.329919         2.092432       4.315594    Mg
atom    11.426528        16.827584       4.291958    Mg
atom    13.530860        16.826463       6.395532    Mg
atom    15.627019         2.088276       6.398211    Mg
atom    13.544466         2.085757       0.040530    Mg
atom    15.650066        16.824957       0.040530    Mg
atom    13.542140        16.824985       2.163986    Mg
atom    15.647839         2.087606       2.163645    Mg
atom    13.533539         2.089909       4.292427    Mg
atom    15.632148        16.831641       4.292538    Mg
atom     0.872620         4.191478       6.399297    Mg
atom     2.924915         6.304746       6.404028    Mg
atom     0.910866         6.296957       0.040530    Mg
atom     3.016466         4.191357       0.040530    Mg
atom     0.910228         4.192619       2.169468    Mg
atom     3.014047         6.298172       2.170784    Mg
atom     0.886173         6.306368       4.294620    Mg
atom     3.005960         4.193845       4.316671    Mg
atom     5.009923         4.099103       6.592068    Mg
atom     7.214905         6.302594       6.357537    Mg
atom     5.122066         6.296957       0.040530    Mg
atom     7.227666         4.191357       0.040530    Mg
atom     5.121778         4.190035       2.177992    Mg
atom     7.229642         6.294715       2.166237    Mg
atom     5.094918         6.299624       4.303478    Mg
atom     7.224127         4.174969       4.300542    Mg
atom     9.417439         4.098402       6.599422    Mg
atom    11.495672         6.304801       6.405504    Mg
atom     9.333266         6.296957       0.040530    Mg
atom    11.438866         4.191357       0.040530    Mg
atom     9.338758         4.187715       2.175732    Mg
atom    11.440982         6.296119       2.168806    Mg
atom     9.344582         6.296903       4.300716    Mg
atom    11.426488         4.189637       4.316888    Mg
atom    13.542700         4.187853       6.399717    Mg
atom    15.627519         6.309763       6.400030    Mg
atom    13.544466         6.296957       0.040530    Mg
atom    15.650066         4.191357       0.040530    Mg
atom    13.542854         4.191670       2.167524    Mg
atom    15.648037         6.298630       2.164916    Mg
atom    13.538376         6.303872       4.294035    Mg
atom    15.634094         4.197918       4.293692    Mg
atom     0.873022         8.427638       6.398887    Mg
atom     2.968516        10.545107       6.400214    Mg
atom     0.910866        10.508157       0.040530    Mg
atom     3.016466         8.402557       0.040530    Mg
atom     0.909817         8.405073       2.169567    Mg
atom     3.014303        10.508747       2.170057    Mg
atom     0.889672        10.518514       4.293895    Mg
atom     3.005803         8.414069       4.317688    Mg
atom     5.005079         8.507379       6.596076    Mg
atom     7.207529        10.589150       6.401001    Mg
atom     5.122066        10.508157       0.040530    Mg
atom     7.227666         8.402557       0.040530    Mg
atom     5.119882         8.403288       2.178504    Mg
atom     7.225752        10.509103       2.170331    Mg
atom     5.101739        10.510052       4.317668    Mg
atom     7.218246         8.422167       4.303774    Mg
atom     9.415832         8.506592       6.598079    Mg
atom    11.442687        10.546679       6.401211    Mg
atom     9.333266        10.508157       0.040530    Mg
atom    11.438866         8.402557       0.040530    Mg
atom     9.334619         8.401691       2.177307    Mg
atom    11.435962        10.507123       2.169162    Mg
atom     9.323402        10.509146       4.317406    Mg
atom    11.422124         8.413280       4.317188    Mg
atom    13.539037         8.427910       6.400575    Mg
atom    15.625255        10.530732       6.397676    Mg
atom    13.544466        10.508157       0.040530    Mg
atom    15.650066         8.402557       0.040530    Mg
atom    13.540985         8.403787       2.168738    Mg
atom    15.645853        10.508902       2.164713    Mg
atom    13.528322        10.518565       4.294446    Mg
atom    15.632357         8.413651       4.294332    Mg
atom     0.878179        12.633446       6.394804    Mg
atom     2.981683        14.731842       6.397072    Mg
atom     0.910866        14.719357       0.040530    Mg
atom     3.016466        12.613757       0.040530    Mg
atom     0.906409        12.614917       2.164976    Mg
atom     3.012313        14.720748       2.164815    Mg
atom     0.889954        14.728355       4.293563    Mg
atom     2.995733        12.624900       4.294247    Mg
atom     5.085251        12.640663       6.398940    Mg
atom     7.203363        14.730235       6.399488    Mg
atom     5.122066        14.719357       0.040530    Mg
atom     7.227666        12.613757       0.040530    Mg
atom     5.117116        12.613024       2.169348    Mg
atom     7.223805        14.719312       2.164671    Mg
atom     5.101169        14.727600       4.293934    Mg
atom     7.209253        12.629418       4.294200    Mg
atom     9.321701        12.640771       6.399174    Mg
atom    11.423971        14.730835       6.397889    Mg
atom     9.333266        14.719357       0.040530    Mg
atom    11.438866        12.613757       0.040530    Mg
atom     9.330287        12.611800       2.169158    Mg
atom    11.434822        14.719219       2.164315    Mg
atom     9.317370        14.725877       4.293434    Mg
atom    11.421093        12.624630       4.294122    Mg
atom    13.525812        12.634910       6.397787    Mg
atom    15.625344        14.731584       6.397462    Mg
atom    13.544466        14.719357       0.040530    Mg
atom    15.650066        12.613757       0.040530    Mg
atom    13.539891        12.614318       2.164723    Mg
atom    15.645852        14.720330       2.164396    Mg
atom    13.526880        14.726607       4.292650    Mg
atom    15.629885        12.623807       4.293528    Mg
atom     7.205199         8.089451       8.495142    Ni
atom     8.981857         6.304094       8.497908    Ni
atom     5.437728         6.298863       8.492134    Ni
atom     7.212339         4.514611       8.496476    Ni
atom     8.990540         8.103641       8.613524    O 
atom     5.418823         8.096666       8.611371    O 
atom     5.426308         4.500428       8.608502    O 
atom     8.997723         4.504256       8.617589    O 