lattice_vector     0.0000000000000000   16.8447999999999993    0.0000000000000000
lattice_vector     0.0000000000000000    0.0000000000000000   16.8447999999999993
lattice_vector    36.3168000000000006    0.0000000000000000    0.0000000000000000
atom     3.016466         2.085757          0.040530  O          
atom     0.910866        16.824957          0.040530  O          
atom     2.988466        16.835216          6.446232  O          
atom     0.883215         2.095704          6.446387  O          
atom     2.994899         2.093650          4.285549  O          
atom     0.889763        16.833178          4.285657  O          
atom     3.014562        16.822062          2.166906  O          
atom     0.909348         2.083932          2.166875  O          
atom     7.227666         2.085757          0.040530  O          
atom     5.122066        16.824957          0.040530  O          
atom     7.195846        16.833699          6.446264  O          
atom     5.086750         2.090602          6.443192  O          
atom     7.212177         2.085483          4.288063  O          
atom     5.100907        16.832680          4.285528  O          
atom     7.225561        16.820688          2.167144  O          
atom     5.123907         2.084273          2.167379  O          
atom    11.438866         2.085757          0.040530  O          
atom     9.333266        16.824957          0.040530  O          
atom    11.419352        16.831741          6.447345  O          
atom     9.311348         2.057328          6.455123  O          
atom    11.423328         2.089888          4.291679  O          
atom     9.314818        16.830976          4.287010  O          
atom    11.436792        16.821024          2.168076  O          
atom     9.335172         2.085130          2.172936  O          
atom    15.650066         2.085757          0.040530  O          
atom    13.544466        16.824957          0.040530  O          
atom    15.625021        16.836314          6.446418  O          
atom    13.525620         2.091078          6.447303  O          
atom    15.630045         2.093812          4.285644  O          
atom    13.524564        16.832992          4.285697  O          
atom    15.647462        16.821328          2.167164  O          
atom    13.542595         2.082615          2.168433  O          
atom     3.016466         6.296957          0.040530  O          
atom     0.910866         4.191357          0.040530  O          
atom     2.980051         4.198451          6.443371  O          
atom     0.882915         6.307178          6.446323  O          
atom     2.993522         6.306458          4.286447  O          
atom     0.889822         4.199369          4.285505  O          
atom     3.016774         4.192202          2.167040  O          
atom     0.911740         6.297866          2.167185  O          
atom     7.227666         6.296957          0.040530  O          
atom     5.122066         4.191357          0.040530  O          
atom     7.179725         4.171671          6.413654  O          
atom     5.078515         6.272019          6.416714  O          
atom     7.242845         6.315428          4.337362  O          
atom     5.103389         4.196845          4.282972  O          
atom     7.235766         4.193262          2.177870  O          
atom     5.131020         6.297424          2.179008  O          
atom    11.438866         6.296957          0.040530  O          
atom     9.333266         4.191357          0.040530  O          
atom    11.436990         4.194170          6.456490  O          
atom     9.367375         6.316348          6.556315  O          
atom    11.418765         6.302060          4.310514  O          
atom     9.324595         4.208035          4.319137  O          
atom    11.438493         4.189713          2.172660  O          
atom     9.336089         6.295390          2.175541  O          
atom    15.650066         6.296957          0.040530  O          
atom    13.544466         4.191357          0.040530  O          
atom    15.628019         4.199714          6.448698  O          
atom    13.548642         6.305248          6.447391  O          
atom    15.635069         6.303974          4.286508  O          
atom    13.527866         4.199563          4.289897  O          
atom    15.648752         4.189982          2.167389  O          
atom    13.543042         6.293545          2.171107  O          
atom     3.016466        10.508157          0.040530  O          
atom     0.910866         8.402557          0.040530  O          
atom     2.965618         8.414483          6.447998  O          
atom     0.883329        10.526500          6.450223  O          
atom     3.000404        10.515449          4.294854  O          
atom     0.890955         8.411815          4.287709  O          
atom     3.024970         8.401023          2.175937  O          
atom     0.912113        10.505627          2.169762  O          
atom     7.227666        10.508157          0.040530  O          
atom     5.122066         8.402557          0.040530  O          
atom     7.226695         8.454580          6.546022  O          
atom     5.097519        10.534910          6.450523  O          
atom     7.221745        10.499427          4.311058  O          
atom     5.132127         8.404570          4.330475  O          
atom     7.233838         8.395490          2.178973  O          
atom     5.125772        10.499226          2.177986  O          
atom    11.438866        10.508157          0.040530  O          
atom     9.333266         8.402557          0.040530  O          
atom    11.467244         8.419979          6.437438  O          
atom     9.320863        10.555579          6.434266  O          
atom    11.423941        10.516779          4.290890  O          
atom     9.317959         8.385262          4.352237  O          
atom    11.435898         8.393049          2.177701  O          
atom     9.332609        10.494756          2.179008  O          
atom    15.650066        10.508157          0.040530  O          
atom    13.544466         8.402557          0.040530  O          
atom    15.627480         8.419344          6.447321  O          
atom    13.527863        10.533096          6.446687  O          
atom    15.630824        10.517936          4.286725  O          
atom    13.533749         8.408190          4.287142  O          
atom    15.650480         8.400313          2.168256  O          
atom    13.541954        10.503418          2.167914  O          
atom     3.016466        14.719357          0.040530  O          
atom     0.910866        12.613757          0.040530  O          
atom     2.987364        12.631385          6.451002  O          
atom     0.884883        14.733009          6.447544  O          
atom     2.995597        14.727508          4.285919  O          
atom     0.890951        12.622505          4.287579  O          
atom     3.016016        12.608134          2.170480  O          
atom     0.908564        14.714922          2.167701  O          
atom     7.227666        14.719357          0.040530  O          
atom     5.122066        12.613757          0.040530  O          
atom     7.202382        12.642605          6.446331  O          
atom     5.092872        14.731893          6.448111  O          
atom     7.206828        14.728393          4.285962  O          
atom     5.106900        12.618731          4.290549  O          
atom     7.227020        12.603171          2.173200  O          
atom     5.119802        14.713839          2.168202  O          
atom    11.438866        14.719357          0.040530  O          
atom     9.333266        12.613757          0.040530  O          
atom    11.418026        12.635968          6.446438  O          
atom     9.308745        14.733926          6.448424  O          
atom    11.418323        14.728167          4.286124  O          
atom     9.313518        12.624721          4.286138  O          
atom    11.435616        12.608290          2.167788  O          
atom     9.330468        14.714667          2.167461  O          
atom    15.650066        14.719357          0.040530  O          
atom    13.544466        12.613757          0.040530  O          
atom    15.626685        12.631647          6.446501  O          
atom    13.521393        14.732703          6.446894  O          
atom    15.629387        14.728314          4.285966  O          
atom    13.524116        12.623207          4.285888  O          
atom    15.647579        12.609306          2.168029  O          
atom    13.541742        14.714696          2.167430  O          
atom     0.883978        16.835786          6.398229  Mg         
atom     2.983403         2.091474          6.399115  Mg         
atom     0.910866         2.085757          0.040530  Mg         
atom     3.016466        16.824957          0.040530  Mg         
atom     0.906276        16.825505          2.164953  Mg         
atom     3.012393         2.086932          2.165389  Mg         
atom     0.890900         2.093609          4.294663  Mg         
atom     2.995466        16.833164          4.295083  Mg         
atom     5.091171        16.834798          6.398143  Mg         
atom     7.193217         2.078223          6.399268  Mg         
atom     5.122066         2.085757          0.040530  Mg         
atom     7.227666        16.824957          0.040530  Mg         
atom     5.117916        16.825281          2.165525  Mg         
atom     7.226867         2.084367          2.168240  Mg         
atom     5.102113         2.091408          4.293050  Mg         
atom     7.209798        16.831958          4.295465  Mg         
atom     9.309710        16.829731          6.403458  Mg         
atom    11.428959         2.081021          6.406902  Mg         
atom     9.333266         2.085757          0.040530  Mg         
atom    11.438866        16.824957          0.040530  Mg         
atom     9.330065        16.826534          2.168743  Mg         
atom    11.435798         2.086474          2.169292  Mg         
atom     9.318788         2.098158          4.315933  Mg         
atom    11.419853        16.832551          4.296951  Mg         
atom    13.523247        16.833946          6.398633  Mg         
atom    15.628334         2.093229          6.399026  Mg         
atom    13.544466         2.085757          0.040530  Mg         
atom    15.650066        16.824957          0.040530  Mg         
atom    13.539887        16.825363          2.165099  Mg         
atom    15.646132         2.086418          2.165066  Mg         
atom    13.527560         2.092611          4.296111  Mg         
atom    15.630474        16.832919          4.294616  Mg         
atom     0.883453         4.198947          6.398921  Mg         
atom     2.978414         6.297106          6.398432  Mg         
atom     0.910866         6.296957          0.040530  Mg         
atom     3.016466         4.191357          0.040530  Mg         
atom     0.907217         4.192844          2.165513  Mg         
atom     3.013487         6.299227          2.169183  Mg         
atom     0.893137         6.307642          4.296026  Mg         
atom     2.995414         4.198524          4.293509  Mg         
atom     5.071294         4.171730          6.393695  Mg         
atom     7.116853         6.205636          6.386666  Mg         
atom     5.122066         6.296957          0.040530  Mg         
atom     7.227666         4.191357          0.040530  Mg         
atom     5.120471         4.192301          2.172682  Mg         
atom     7.226244         6.292941          2.167620  Mg         
atom     5.093582         6.311735          4.311589  Mg         
atom     7.228353         4.178069          4.309686  Mg         
atom     9.319808         4.098454          6.620370  Mg         
atom    11.506277         6.292864          6.399541  Mg         
atom     9.333266         6.296957          0.040530  Mg         
atom    11.438866         4.191357          0.040530  Mg         
atom     9.335814         4.186738          2.172710  Mg         
atom    11.441323         6.292647          2.167798  Mg         
atom     9.330438         6.290175          4.283992  Mg         
atom    11.412039         4.189298          4.323172  Mg         
atom    13.536055         4.186601          6.403824  Mg         
atom    15.635264         6.306401          6.400353  Mg         
atom    13.544466         6.296957          0.040530  Mg         
atom    15.650066         4.191357          0.040530  Mg         
atom    13.540036         4.189218          2.168890  Mg         
atom    15.649883         6.297252          2.165286  Mg         
atom    13.542335         6.300237          4.292813  Mg         
atom    15.634713         4.197924          4.295869  Mg         
atom     0.883803         8.416802          6.401839  Mg         
atom     2.983553        10.529730          6.407619  Mg         
atom     0.910866        10.508157          0.040530  Mg         
atom     3.016466         8.402557          0.040530  Mg         
atom     0.910983         8.404363          2.169674  Mg         
atom     3.015330        10.508026          2.171214  Mg         
atom     0.894349        10.516283          4.298788  Mg         
atom     3.010279         8.410826          4.316438  Mg         
atom     5.008032         8.415131          6.609842  Mg         
atom     7.198041        10.596944          6.396113  Mg         
atom     5.122066        10.508157          0.040530  Mg         
atom     7.227666         8.402557          0.040530  Mg         
atom     5.119420         8.403965          2.176272  Mg         
atom     7.224414        10.508511          2.170089  Mg         
atom     5.103742        10.497778          4.325170  Mg         
atom     7.215742         8.407176          4.287327  Mg         
atom     9.422396         8.511010          6.528961  Mg         
atom    11.447501        10.548364          6.401437  Mg         
atom     9.333266        10.508157          0.040530  Mg         
atom    11.438866         8.402557          0.040530  Mg         
atom     9.335857         8.401405          2.170200  Mg         
atom    11.437803        10.508457          2.169186  Mg         
atom     9.324846        10.515815          4.310455  Mg         
atom    11.431380         8.410622          4.310408  Mg         
atom    13.544610         8.424981          6.399118  Mg         
atom    15.630776        10.528360          6.399665  Mg         
atom    13.544466        10.508157          0.040530  Mg         
atom    15.650066         8.402557          0.040530  Mg         
atom    13.544279         8.402824          2.168004  Mg         
atom    15.648311        10.508664          2.166186  Mg         
atom    13.532542        10.518420          4.294859  Mg         
atom    15.637667         8.412015          4.295481  Mg         
atom     0.884913        12.630580          6.399654  Mg         
atom     2.987515        14.733828          6.399562  Mg         
atom     0.910866        14.719357          0.040530  Mg         
atom     3.016466        12.613757          0.040530  Mg         
atom     0.907726        12.614032          2.166676  Mg         
atom     3.012308        14.719540          2.165547  Mg         
atom     0.891332        14.727635          4.295465  Mg         
atom     2.999247        12.621151          4.298438  Mg         
atom     5.085547        12.635254          6.403561  Mg         
atom     7.199440        14.737014          6.399103  Mg         
atom     5.122066        14.719357          0.040530  Mg         
atom     7.227666        12.613757          0.040530  Mg         
atom     5.116433        12.609657          2.171168  Mg         
atom     7.222691        14.720640          2.165257  Mg         
atom     5.100707        14.728301          4.296597  Mg         
atom     7.208662        12.630656          4.294005  Mg         
atom     9.319788        12.642407          6.399041  Mg         
atom    11.418858        14.735750          6.399088  Mg         
atom     9.333266        14.719357          0.040530  Mg         
atom    11.438866        12.613757          0.040530  Mg         
atom     9.330741        12.614466          2.168936  Mg         
atom    11.434132        14.720672          2.165101  Mg         
atom     9.314696        14.731190          4.295636  Mg         
atom    11.422219        12.626983          4.294925  Mg         
atom    13.527683        12.636287          6.397781  Mg         
atom    15.626827        14.734078          6.398049  Mg         
atom    13.544466        14.719357          0.040530  Mg         
atom    15.650066        12.613757          0.040530  Mg         
atom    13.540940        12.614535          2.165419  Mg         
atom    15.645687        14.719764          2.164962  Mg         
atom    13.525817        14.729585          4.294475  Mg         
atom    15.632434        12.624285          4.295394  Mg         
atom     7.682674         4.961388          9.767615  Ni         
atom     5.848636         6.803275          9.767534  Ni         
atom     7.277394         8.183231          8.448375  Ni         
atom     9.077919         6.379808          8.453697  Ni         
atom     5.732213         4.855018         10.038925  O          
atom     5.503496         8.134613          8.679215  O          
atom     6.454514         5.573835         11.085391  O          
atom     9.017191         4.606490          8.684945  O          
atom     9.043655         8.147700          8.652559  O          