lattice_vector     0.0000000000000000   16.8447999999999993    0.0000000000000000
lattice_vector     0.0000000000000000    0.0000000000000000   16.8447999999999993
lattice_vector    36.3168000000000006    0.0000000000000000    0.0000000000000000
atom      3.016466         2.085757      0.040530      O 
atom      0.910866        16.824957      0.040530      O 
atom      2.988336        16.835414      6.446526      O 
atom      0.884175         2.096267      6.446245      O 
atom      2.995045         2.094484      4.285774      O 
atom      0.889656        16.833661      4.286050      O 
atom      3.015649        16.823476      2.168169      O 
atom      0.909994         2.084709      2.167445      O 
atom      7.227666         2.085757      0.040530      O 
atom      5.122066        16.824957      0.040530      O 
atom      7.199204        16.835674      6.448499      O 
atom      5.088559         2.093990      6.446241      O 
atom      7.212088         2.089436      4.289754      O 
atom      5.101288        16.833937      4.286243      O 
atom      7.228168        16.823835      2.168721      O 
atom      5.123335         2.086109      2.168738      O 
atom     11.438866         2.085757      0.040530      O 
atom      9.333266        16.824957      0.040530      O 
atom     11.416951        16.834658      6.448472      O 
atom      9.314542         2.075155      6.451563      O 
atom     11.424128         2.088277      4.288516      O 
atom      9.314677        16.831703      4.287569      O 
atom     11.436617        16.820627      2.167240      O 
atom      9.334727         2.085075      2.170477      O 
atom     15.650066         2.085757      0.040530      O 
atom     13.544466        16.824957      0.040530      O 
atom     15.625083        16.836319      6.446390      O 
atom     13.527876         2.090641      6.446738      O 
atom     15.630422         2.093761      4.285869      O 
atom     13.524693        16.832565      4.285860      O 
atom     15.647794        16.821626      2.167377      O 
atom     13.543908         2.083204      2.168248      O 
atom      3.016466         6.296957      0.040530      O 
atom      0.910866         4.191357      0.040530      O 
atom      2.982932         4.199760      6.446244      O 
atom      0.882056         6.308452      6.449114      O 
atom      2.991732         6.308252      4.287615      O 
atom      0.890161         4.200311      4.286215      O 
atom      3.017761         4.191793      2.168724      O 
atom      0.911564         6.297567      2.167813      O 
atom      7.227666         6.296957      0.040530      O 
atom      5.122066         4.191357      0.040530      O 
atom      7.197957         4.168485      6.444849      O 
atom      5.065371         6.300648      6.429415      O 
atom      7.232291         6.307490      4.351450      O 
atom      5.104256         4.199050      4.289981      O 
atom      7.235245         4.193272      2.178226      O 
atom      5.130685         6.296820      2.178989      O 
atom     11.438866         6.296957      0.040530      O 
atom      9.333266         4.191357      0.040530      O 
atom     11.441215         4.178733      6.439121      O 
atom      9.385078         6.250377      6.485056      O 
atom     11.424816         6.301034      4.304481      O 
atom      9.323317         4.197734      4.307223      O 
atom     11.439509         4.188966      2.171431      O 
atom      9.334714         6.293445      2.179847      O 
atom     15.650066         6.296957      0.040530      O 
atom     13.544466         4.191357      0.040530      O 
atom     15.628046         4.199960      6.448648      O 
atom     13.542991         6.304424      6.451657      O 
atom     15.633495         6.305413      4.289039      O 
atom     13.531819         4.197600      4.287452      O 
atom     15.650795         4.191408      2.168223      O 
atom     13.543975         6.295106      2.170388      O 
atom      3.016466        10.508157      0.040530      O 
atom      0.910866         8.402557      0.040530      O 
atom      2.972727         8.419295      6.445981      O 
atom      0.883029        10.525846      6.449637      O 
atom      2.996331        10.517049      4.288075      O 
atom      0.888025         8.413459      4.287499      O 
atom      3.020570         8.401666      2.172319      O 
atom      0.910935        10.506397      2.168573      O 
atom      7.227666        10.508157      0.040530      O 
atom      5.122066         8.402557      0.040530      O 
atom      7.172033         8.466137      6.517185      O 
atom      5.086439        10.532142      6.440911      O 
atom      7.214181        10.504738      4.309414      O 
atom      5.115100         8.409147      4.307945      O 
atom      7.231722         8.393965      2.180146      O 
atom      5.125782        10.502464      2.175021      O 
atom     11.438866        10.508157      0.040530      O 
atom      9.333266         8.402557      0.040530      O 
atom     11.442604         8.419056      6.448593      O 
atom      9.314124        10.542597      6.445048      O 
atom     11.419766        10.515240      4.291330      O 
atom      9.312521         8.389372      4.349200      O 
atom     11.432973         8.395669      2.178013      O 
atom      9.332438        10.494882      2.178935      O 
atom     15.650066        10.508157      0.040530      O 
atom     13.544466         8.402557      0.040530      O 
atom     15.625780         8.418551      6.449652      O 
atom     13.522460        10.528004      6.446357      O 
atom     15.630018        10.517486      4.287689      O 
atom     13.529379         8.410952      4.290595      O 
atom     15.649176         8.400502      2.168648      O 
atom     13.541206        10.503387      2.168213      O 
atom      3.016466        14.719357      0.040530      O 
atom      0.910866        12.613757      0.040530      O 
atom      2.987006        12.632879      6.450997      O 
atom      0.883714        14.733431      6.448407      O 
atom      2.995528        14.728511      4.286403      O 
atom      0.890571        12.622779      4.287713      O 
atom      3.016924        12.611297      2.169547      O 
atom      0.908817        14.715988      2.168370      O 
atom      7.227666        14.719357      0.040530      O 
atom      5.122066        12.613757      0.040530      O 
atom      7.200635        12.642629      6.446942      O 
atom      5.094254        14.733478      6.448482      O 
atom      7.207274        14.728630      4.287200      O 
atom      5.103147        12.623196      4.289383      O 
atom      7.227342        12.606409      2.172248      O 
atom      5.122032        14.717161      2.168719      O 
atom     11.438866        14.719357      0.040530      O 
atom      9.333266        12.613757      0.040530      O 
atom     11.416292        12.633504      6.446694      O 
atom      9.308602        14.734622      6.448994      O 
atom     11.418168        14.728313      4.286266      O 
atom      9.313005        12.623395      4.288505      O 
atom     11.435245        12.608083      2.168605      O 
atom      9.330727        14.714882      2.168013      O 
atom     15.650066        14.719357      0.040530      O 
atom     13.544466        12.613757      0.040530      O 
atom     15.624878        12.629430      6.449107      O 
atom     13.520264        14.732371      6.446244      O 
atom     15.629325        14.728282      4.286196      O 
atom     13.523740        12.622731      4.286228      O 
atom     15.647555        12.609725      2.168202      O 
atom     13.541747        14.714697      2.167444      O 
atom      0.883523        16.836023      6.398806      Mg
atom      2.984584         2.092723      6.398334      Mg
atom      0.910866         2.085757      0.040530      Mg
atom      3.016466        16.824957      0.040530      Mg
atom      0.906480        16.825845      2.165122      Mg
atom      3.012805         2.087243      2.165859      Mg
atom      0.890743         2.093711      4.294863      Mg
atom      2.995348        16.833473      4.295306      Mg
atom      5.091706        16.835225      6.399098      Mg
atom      7.195921         2.081569      6.404025      Mg
atom      5.122066         2.085757      0.040530      Mg
atom      7.227666        16.824957      0.040530      Mg
atom      5.118715        16.826136      2.166063      Mg
atom      7.226230         2.086595      2.169086      Mg
atom      5.102822         2.093105      4.295947      Mg
atom      7.208766        16.832419      4.296528      Mg
atom      9.311109        16.832535      6.402412      Mg
atom     11.432266         2.082146      6.401978      Mg
atom      9.333266         2.085757      0.040530      Mg
atom     11.438866        16.824957      0.040530      Mg
atom      9.330265        16.824978      2.165747      Mg
atom     11.437456         2.085614      2.166827      Mg
atom      9.319486         2.085479      4.297343      Mg
atom     11.422096        16.831369      4.295573      Mg
atom     13.523668        16.833988      6.399001      Mg
atom     15.628267         2.093254      6.399262      Mg
atom     13.544466         2.085757      0.040530      Mg
atom     15.650066        16.824957      0.040530      Mg
atom     13.540507        16.825050      2.165000      Mg
atom     15.646800         2.086622      2.165247      Mg
atom     13.529879         2.091340      4.294716      Mg
atom     15.630783        16.832629      4.294967      Mg
atom      0.882630         4.199772      6.400317      Mg
atom      2.977056         6.301503      6.402678      Mg
atom      0.910866         6.296957      0.040530      Mg
atom      3.016466         4.191357      0.040530      Mg
atom      0.907453         4.193366      2.165655      Mg
atom      3.013186         6.298360      2.169037      Mg
atom      0.889814         6.306659      4.297222      Mg
atom      2.994486         4.200196      4.296382      Mg
atom      5.074583         4.181188      6.404475      Mg
atom      7.115932         6.223859      6.507485      Mg
atom      5.122066         6.296957      0.040530      Mg
atom      7.227666         4.191357      0.040530      Mg
atom      5.120845         4.192366      2.170120      Mg
atom      7.228290         6.294900      2.173667      Mg
atom      5.102731         6.303756      4.309508      Mg
atom      7.215482         4.194210      4.312938      Mg
atom      9.331916         4.125271      6.433011      Mg
atom     11.495885         6.285587      6.423191      Mg
atom      9.333266         6.296957      0.040530      Mg
atom     11.438866         4.191357      0.040530      Mg
atom      9.334457         4.189859      2.170515      Mg
atom     11.439443         6.296192      2.170525      Mg
atom      9.324654         6.296102      4.304960      Mg
atom     11.428966         4.192224      4.305112      Mg
atom     13.536709         4.185985      6.401816      Mg
atom     15.630914         6.307199      6.403388      Mg
atom     13.544466         6.296957      0.040530      Mg
atom     15.650066         4.191357      0.040530      Mg
atom     13.543081         4.191588      2.166900      Mg
atom     15.648270         6.298407      2.166381      Mg
atom     13.536627         6.302758      4.296328      Mg
atom     15.634569         4.198371      4.296216      Mg
atom      0.880772         8.417703      6.402433      Mg
atom      2.980487        10.533554      6.403299      Mg
atom      0.910866        10.508157      0.040530      Mg
atom      3.016466         8.402557      0.040530      Mg
atom      0.906603         8.404488      2.166338      Mg
atom      3.013689        10.510000      2.168287      Mg
atom      0.890007        10.518840      4.297766      Mg
atom      2.990852         8.412279      4.296934      Mg
atom      5.023703         8.425079      6.421138      Mg
atom      7.193520        10.588069      6.424763      Mg
atom      5.122066        10.508157      0.040530      Mg
atom      7.227666         8.402557      0.040530      Mg
atom      5.120409         8.403653      2.171535      Mg
atom      7.225657        10.507744      2.171710      Mg
atom      5.104044        10.518022      4.305727      Mg
atom      7.216480         8.403656      4.305585      Mg
atom      9.378554         8.486888      6.493320      Mg
atom     11.433775        10.538885      6.404816      Mg
atom      9.333266        10.508157      0.040530      Mg
atom     11.438866         8.402557      0.040530      Mg
atom      9.333008         8.400260      2.173115      Mg
atom     11.435548        10.507388      2.169980      Mg
atom      9.317287        10.516164      4.311576      Mg
atom     11.426255         8.407121      4.313016      Mg
atom     13.534217         8.422394      6.405316      Mg
atom     15.626663        10.526035      6.400580      Mg
atom     13.544466        10.508157      0.040530      Mg
atom     15.650066         8.402557      0.040530      Mg
atom     13.541618         8.403548      2.168716      Mg
atom     15.646436        10.509074      2.166014      Mg
atom     13.527367        10.517962      4.297191      Mg
atom     15.632443         8.412772      4.297988      Mg
atom      0.883289        12.630879      6.401518      Mg
atom      2.987347        14.734534      6.400244      Mg
atom      0.910866        14.719357      0.040530      Mg
atom      3.016466        12.613757      0.040530      Mg
atom      0.906839        12.614674      2.165982      Mg
atom      3.012502        14.720529      2.165793      Mg
atom      0.890238        14.728504      4.296091      Mg
atom      2.995851        12.624284      4.297387      Mg
atom      5.085615        12.637042      6.403200      Mg
atom      7.200634        14.736417      6.401374      Mg
atom      5.122066        14.719357      0.040530      Mg
atom      7.227666        12.613757      0.040530      Mg
atom      5.118573        12.614862      2.168422      Mg
atom      7.224195        14.720572      2.166533      Mg
atom      5.101544        14.729660      4.297362      Mg
atom      7.209643        12.627372      4.298213      Mg
atom      9.316195        12.638145      6.404045      Mg
atom     11.417072        14.734805      6.399941      Mg
atom      9.333266        14.719357      0.040530      Mg
atom     11.438866        12.613757      0.040530      Mg
atom      9.330209        12.613593      2.169088      Mg
atom     11.434345        14.719613      2.165101      Mg
atom      9.314372        14.729443      4.297157      Mg
atom     11.420097        12.624889      4.296722      Mg
atom     13.523520        12.632108      6.399319      Mg
atom     15.625536        14.733336      6.399283      Mg
atom     13.544466        14.719357      0.040530      Mg
atom     15.650066        12.613757      0.040530      Mg
atom     13.540101        12.614037      2.165283      Mg
atom     15.645528        14.719720      2.165046      Mg
atom     13.525407        14.727939      4.295127      Mg
atom     15.630553        12.623728      4.296486      Mg
atom      7.213836         8.236825      8.398869      Ni
atom      8.879731         7.989425     10.026106      Ni
atom      9.141255         6.411724      8.331908      Ni
atom      7.272452         6.258718      9.664027      Ni
atom      7.050200         8.004244     10.213327      O 
